22
 * E =  +0.000 kcal/mol ; (1) 177_160_283_109
 C   +0.00000000   +0.00000000   +0.00000000
 O   +0.00000000   +0.00000000   +1.41635368
 C   +1.20351288   +0.00000000   +1.98466938
 C   +1.12073683   +0.07544926   +3.45842679
 C   +2.35278052   -0.38100135   +4.19159162
 C   +2.42724553   -1.87498972   +4.21165074
 C   +3.28425790   -2.64537639   +3.54831029
 C   +4.38062908   -2.21774695   +2.63820782
 O   +2.22943012   -0.01462473   +1.35439763
 H   +4.26784580   -2.69350663   +1.66540492
 H   +0.49902838   -0.88676786   -0.37798805
 H   +4.39763573   -1.14701334   +2.47203550
 H   +5.34749771   -2.53008165   +3.03217414
 H   +3.18279531   -3.71558192   +3.68261344
 H   +1.68165556   -2.36442233   +4.82662017
 H   +3.22601967   +0.05255569   +3.71380410
 H   +2.31486452   -0.00369755   +5.21317470
 H   +1.00548234   +1.32910112   +3.68569398
 H   +0.17856653   -0.29989682   +3.84318817
 H   -1.04084882   +0.00714489   -0.29607404
 H   +0.51174767   +0.87939061   -0.37855343
 H   +0.95001355   +2.27569491   +3.93440121
22
 * E =  +0.348 kcal/mol ; (2) 178_166_290_248
 C   +0.00000000   +0.00000000   +0.00000000
 O   +0.00000000   +0.00000000   +1.41646001
 C   +1.20303286   +0.00000000   +1.98515952
 C   +1.11839085   +0.05801521   +3.45964585
 C   +2.39414819   -0.25486480   +4.19412496
 C   +2.73816330   -1.70490112   +4.07239371
 C   +2.73635828   -2.61567135   +5.04081891
 C   +2.40216432   -2.42084865   +6.47872065
 O   +2.22987313   -0.00969776   +1.35571076
 H   +3.25018683   -2.68455170   +7.10945782
 H   +0.50181515   -0.88515290   -0.37815915
 H   +2.11647752   -1.40080213   +6.71419860
 H   +1.58058243   -3.07302433   +6.77225248
 H   +3.01417234   -3.62553264   +4.76553288
 H   +3.00902665   -2.02107890   +3.07356690
 H   +3.19583614   +0.34009573   +3.75911710
 H   +2.28894566   +0.04313998   +5.23333509
 H   +0.85878073   +1.28760993   +3.69184585
 H   +0.22793092   -0.42676767   +3.84455858
 H   -1.04086991   +0.00392861   -0.29591951
 H   +0.50893096   +0.88093005   -0.37865335
 H   +0.69354936   +2.22439485   +3.93706200
22
 * E =  +0.756 kcal/mol ; (3) 178_165_170_122
 C   +0.00000000   +0.00000000   +0.00000000
 O   +0.00000000   +0.00000000   +1.41643059
 C   +1.20410654   +0.00000000   +1.98509587
 C   +1.11797213   +0.05779144   +3.45825346
 C   +2.38354194   -0.27724299   +4.19627374
 C   +2.28343011   +0.03422097   +5.65180875
 C   +2.44947885   -0.80161843   +6.67119428
 C   +2.77556253   -2.25357689   +6.61952077
 O   +2.23019273   -0.01215550   +1.35529404
 H   +3.72642822   -2.44988273   +7.11330583
 H   +0.50352962   -0.88401090   -0.37859356
 H   +2.02220276   -2.83417374   +7.15000306
 H   +2.84260394   -2.63838723   +5.60723912
 H   +2.34358610   -0.38918799   +7.66682721
 H   +2.05089339   +1.06679838   +5.88339909
 H   +2.61937948   -1.32741756   +4.03033355
 H   +3.19966248   +0.28515381   +3.74263115
 H   +0.89202132   +1.30042697   +3.68533876
 H   +0.21131751   -0.39066870   +3.84913561
 H   -1.04091890   +0.00211519   -0.29589504
 H   +0.50706278   +0.88197826   -0.37875588
 H   +0.76334997   +2.24595661   +3.90640958
22
 * E =  +0.830 kcal/mol ; (4) 177_166_177_252
 C   +0.00000000   +0.00000000   +0.00000000
 O   +0.00000000   +0.00000000   +1.41635188
 C   +1.20458631   +0.00000000   +1.98477677
 C   +1.12086452   +0.06167404   +3.45715667
 C   +2.39009009   -0.26605196   +4.19447148
 C   +2.24094800   -0.10498663   +5.67108034
 C   +2.76929196   +0.85119626   +6.42744868
 C   +3.62961869   +1.98390673   +5.98829231
 O   +2.23044010   -0.01293566   +1.35422344
 H   +3.17357399   +2.93394628   +6.26333260
 H   +0.50314750   -0.88419827   -0.37871053
 H   +4.59942642   +1.94646027   +6.48281057
 H   +3.79833496   +1.99624215   +4.91656177
 H   +2.55259640   +0.81829123   +7.48794301
 H   +1.62144727   -0.84697843   +6.16001052
 H   +2.65943743   -1.30012331   +3.96737274
 H   +3.19579465   +0.34124623   +3.79310346
 H   +0.90209435   +1.30310142   +3.69479180
 H   +0.21378976   -0.38572089   +3.84914596
 H   -1.04090602   +0.00260128   -0.29599107
 H   +0.50744701   +0.88175227   -0.37880553
 H   +0.79499979   +2.24264916   +3.93962393
22
 * E =  +0.944 kcal/mol ; (5) 181_330_292_113
 C   +0.00000000   +0.00000000   +0.00000000
 O   +0.00000000   +0.00000000   +1.41582458
 C   +1.20660655   +0.00000000   +1.98146696
 C   +1.13674933   -0.02948426   +3.45827663
 C   -0.05423846   +0.61292453   +4.12206723
 C   -0.01939931   +2.09667395   +3.94078986
 C   -0.86732099   +2.84006500   +3.23665199
 C   -2.06425807   +2.38734144   +2.47713701
 O   +2.22825188   -0.01726023   +1.34581818
 H   -2.96737781   +2.84810279   +2.87601349
 H   +0.49734418   -0.88736491   -0.37898905
 H   -1.98987478   +2.69599450   +1.43509732
 H   -2.19106949   +1.31065772   +2.49426733
 H   -0.67817519   +3.90614716   +3.20979679
 H   +0.80607166   +2.60056547   +4.42842539
 H   -0.96741551   +0.18717253   +3.71885297
 H   -0.02683007   +0.37329199   +5.18501273
 H   +1.05956679   -1.27856152   +3.73635151
 H   +2.10062530   +0.23224830   +3.87944661
 H   -1.04081774   +0.00984384   -0.29711538
 H   +0.51424556   +0.87842323   -0.37710396
 H   +0.96217262   -2.20852358   +4.01960578
22
 * E =  +1.359 kcal/mol ; (6) 183_335_293_248
 C   +0.00000000   +0.00000000   +0.00000000
 O   +0.00000000   +0.00000000   +1.41647355
 C   +1.20679317   +0.00000000   +1.98420892
 C   +1.13684525   -0.06139989   +3.46039746
 C   -0.10173917   +0.45602838   +4.14714070
 C   -0.23441325   +1.93485141   +3.97264080
 C   -0.13033259   +2.86989694   +4.91168639
 C   +0.13345442   +2.68089049   +6.36464503
 O   +2.22857806   +0.00444171   +1.34889324
 H   -0.68236303   +3.08975540   +6.95932343
 H   +0.50811219   -0.88174422   -0.37765255
 H   +0.25903855   +1.63951898   +6.64238065
 H   +1.03457812   +3.21589929   +6.66135487
 H   -0.25166510   +3.89857432   +4.59588640
 H   -0.42729372   +2.25638066   +2.95699317
 H   -0.97333529   -0.03802706   +3.72095170
 H   -0.05769870   +0.18519687   +5.19823348
 H   +1.16612753   -1.31517006   +3.69928991
 H   +2.07407372   +0.27159195   +3.89037390
 H   -1.04079263   -0.00232084   -0.29661641
 H   +0.50428359   +0.88370570   -0.37828970
 H   +1.14709978   -2.26598918   +3.95040609
22
 * E =  +1.632 kcal/mol ; (7) 182_333_174_121
 C   +0.00000000   +0.00000000   +0.00000000
 O   +0.00000000   +0.00000000   +1.41650891
 C   +1.20585945   +0.00000000   +1.98428512
 C   +1.13721346   -0.05316752   +3.45937529
 C   -0.07910492   +0.50933209   +4.14788131
 C   -0.05593722   +0.24182377   +5.61585140
 C   -0.08290721   +1.13292243   +6.60088600
 C   -0.14417527   +2.61659101   +6.49151751
 O   +2.22828700   +0.00401986   +1.34911841
 H   -1.04871551   +2.99814618   +6.96343511
 H   +0.50522629   -0.88332925   -0.37782021
 H   +0.69639442   +3.07298006   +7.01214279
 H   -0.13149971   +2.96861753   +5.46523806
 H   -0.06235862   +0.74710673   +7.61244963
 H   -0.01085830   -0.80589444   +5.88799300
 H   -0.14039804   +1.57743875   +3.94319282
 H   -0.96818816   +0.06459680   +3.70194986
 H   +1.11091727   -1.31165621   +3.69954082
 H   +2.08817178   +0.23154204   +3.89375703
 H   -1.04087082   +0.00083996   -0.29630956
 H   +0.50671347   +0.88222347   -0.37829902
 H   +1.03888197   -2.26197040   +3.93369047
22
 * E =  +1.639 kcal/mol ; (8) 182_333_180_250
 C   +0.00000000   +0.00000000   +0.00000000
 O   +0.00000000   +0.00000000   +1.41647024
 C   +1.20660474   +0.00000000   +1.98372379
 C   +1.13571478   -0.05253952   +3.45804816
 C   -0.08705887   +0.50284772   +4.14274230
 C   +0.00740035   +0.38238555   +5.62780117
 C   -0.69511738   -0.42895298   +6.41109606
 C   -1.74121481   -1.40633170   +6.00320070
 O   +2.22864381   +0.00204877   +1.34771951
 H   -1.46369127   -2.41106558   +6.31886076
 H   +0.50730742   -0.88210228   -0.37790067
 H   -2.69135577   -1.17744210   +6.48411221
 H   -1.90382957   -1.43028233   +4.93070081
 H   -0.48874612   -0.38931588   +7.47336104
 H   +0.74517002   +1.02070668   +6.09842316
 H   -0.18417092   +1.55737852   +3.87321326
 H   -0.97195423   +0.01152989   +3.75016724
 H   +1.10772899   -1.30780235   +3.71289257
 H   +2.08612261   +0.23544632   +3.89231859
 H   -1.04083405   -0.00126446   -0.29650962
 H   +0.50468722   +0.88337989   -0.37835187
 H   +1.02176278   -2.24742828   +3.97155846
22
 * E =  +1.653 kcal/mol ; (9) 179_174_066_117
 C   +0.00000000   +0.00000000   +0.00000000
 O   +0.00000000   +0.00000000   +1.41611731
 C   +1.20341427   +0.00000000   +1.98657145
 C   +1.10738788   +0.02741529   +3.45959387
 C   +2.39886437   -0.10566532   +4.22436122
 C   +3.33120270   +1.04812958   +4.03984453
 C   +3.75615872   +1.88365815   +4.98185900
 C   +3.41575804   +1.88797380   +6.43175068
 O   +2.22956075   -0.00793016   +1.35573855
 H   +4.31290096   +1.76776894   +7.03783702
 H   +0.50218159   -0.88471035   -0.37892601
 H   +2.97211088   +2.84132778   +6.71585867
 H   +2.71945195   +1.10345226   +6.70964020
 H   +4.43546307   +2.66700619   +4.66915338
 H   +3.68013371   +1.19489567   +3.02778484
 H   +2.16416152   -0.25402279   +5.27406639
 H   +2.89647191   -1.01619972   +3.88082704
 H   +0.64512689   +1.20717883   +3.72585666
 H   +0.28871401   -0.58769308   +3.81777202
 H   -1.04091350   +0.00364192   -0.29593621
 H   +0.50801822   +0.88137874   -0.37884160
 H   +0.33234794   +2.08054475   +3.98443164
22
 * E =  +1.823 kcal/mol ; (10) 180_181_072_249
 C   +0.00000000   +0.00000000   +0.00000000
 O   +0.00000000   +0.00000000   +1.41600792
 C   +1.20414584   +0.00000000   +1.98529173
 C   +1.11083834   +0.00357035   +3.46063376
 C   +2.42125986   +0.03711015   +4.20147839
 C   +3.11147584   +1.36110000   +4.11093014
 C   +4.23429820   +1.64184649   +3.45994440
 C   +5.07539788   +0.72064043   +2.65061334
 O   +2.22978940   -0.00288667   +1.35562581
 H   +5.06006170   +1.02466359   +1.60511075
 H   +0.50149940   -0.88508426   -0.37914852
 H   +6.11180827   +0.75477726   +2.98364487
 H   +4.73177590   -0.30683596   +2.68664231
 H   +4.58133490   +2.66705304   +3.50481542
 H   +2.61599953   +2.16912257   +4.63542479
 H   +2.22867458   -0.19593704   +5.24797303
 H   +3.05646534   -0.75648257   +3.81051695
 H   +0.48130176   +1.10704045   +3.74321243
 H   +0.38203335   -0.71704234   +3.81735611
 H   -1.04088776   +0.00438085   -0.29613752
 H   +0.50860598   +0.88106513   -0.37871442
 H   +0.02995822   +1.91243906   +4.00061375
22
 * E =  +2.994 kcal/mol ; (11) 181_345_074_123
 C   +0.00000000   +0.00000000   +0.00000000
 O   +0.00000000   +0.00000000   +1.41674075
 C   +1.20695450   +0.00000000   +1.98375582
 C   +1.15440778   -0.03010539   +3.46047979
 C   -0.13742459   +0.28198313   +4.17885753
 C   -1.16507826   -0.80084852   +4.09994247
 C   -1.75013138   -1.41925473   +5.12039732
 C   -1.53409506   -1.20154566   +6.57759190
 O   +2.22741107   +0.00109183   +1.34527647
 H   -2.45996810   -0.89094991   +7.06020066
 H   +0.50823486   -0.88163744   -0.37749336
 H   -1.22605958   -2.12830234   +7.05969295
 H   -0.78125051   -0.44996062   +6.79112094
 H   -2.47879132   -2.18211063   +4.87546495
 H   -1.44988332   -1.09167143   +3.09880947
 H   +0.09660336   +0.51187167   +5.21374960
 H   -0.55315477   +1.19456213   +3.74383109
 H   +1.43394060   -1.25597093   +3.74305708
 H   +2.03168377   +0.46753594   +3.85689255
 H   -1.04088922   -0.00171009   -0.29647558
 H   +0.50406217   +0.88383922   -0.37808275
 H   +1.61005044   -2.17084667   +4.00950452
22
 * E =  +3.052 kcal/mol ; (12) 181_355_074_244
 C   +0.00000000   +0.00000000   +0.00000000
 O   +0.00000000   +0.00000000   +1.41580967
 C   +1.20488859   +0.00000000   +1.98150220
 C   +1.15311227   -0.03537011   +3.46026971
 C   -0.17895003   +0.04936429   +4.16254172
 C   -0.99240565   -1.20211314   +4.06849246
 C   -2.17031074   -1.35874894   +3.47649167
 C   -2.95636070   -0.33789934   +2.73248482
 O   +2.22742069   +0.01764036   +1.34644345
 H   -3.14739356   -0.67874040   +1.71553347
 H   +0.50573430   -0.88323454   -0.37724439
 H   -3.92824808   -0.18112037   +3.19914178
 H   -2.44813547   +0.61805349   +2.66812077
 H   -2.61850497   -2.34338868   +3.52652583
 H   -0.55339472   -2.06535431   +4.55369842
 H   +0.01165216   +0.26190966   +5.21439858
 H   -0.73101778   +0.90154333   +3.76893710
 H   +1.65020095   -1.19605933   +3.74335202
 H   +1.93437987   +0.59833320   +3.86463312
 H   -1.04117921   -0.00082823   -0.29623370
 H   +0.50557986   +0.88238956   -0.37978925
 H   +2.01067478   -2.05390073   +3.99978904
22
 * E =  +4.423 kcal/mol ; (13) 177_161_280_005
 C   +0.00000000   +0.00000000   +0.00000000
 O   +0.00000000   +0.00000000   +1.41667389
 C   +1.20530436   +0.00000000   +1.98530595
 C   +1.11626872   +0.06061614   +3.45985051
 C   +2.33963395   -0.36496940   +4.21283578
 C   +2.60174634   -1.82733631   +4.41308132
 C   +1.99557902   -2.92881165   +3.98212700
 C   +0.80170015   -3.12618145   +3.11213874
 O   +2.23046105   -0.00693976   +1.35613577
 H   +0.06728901   -3.74949416   +3.62087909
 H   +0.50299013   -0.88459036   -0.37801916
 H   +0.30278381   -2.21429311   +2.81151589
 H   +1.08811997   -3.66037928   +2.20673018
 H   +2.44990357   -3.85788035   +4.30500209
 H   +3.47595149   -1.99049744   +5.03201306
 H   +3.20783465   +0.06180532   +3.70915226
 H   +2.31018143   +0.09669731   +5.20098817
 H   +1.01925551   +1.31011226   +3.67579568
 H   +0.16577385   -0.28843064   +3.84573366
 H   -1.04081588   +0.00314424   -0.29617546
 H   +0.50828906   +0.88139862   -0.37827289
 H   +0.98143216   +2.26720057   +3.92419905
22
 * E =  +8.267 kcal/mol ; (14) 357_173_288_247
 C   +0.00000000   +0.00000000   +0.00000000
 O   +0.00000000   +0.00000000   +1.41007513
 C   +1.14308804   +0.00000000   +2.10293653
 C   +2.42493274   -0.06875164   +1.35220626
 C   +3.65952642   +0.09745956   +2.19782290
 C   +3.79853039   +1.51376869   +2.65672489
 C   +4.73890139   +2.38338478   +2.29998093
 C   +5.88275776   +2.16679277   +1.37143684
 O   +1.10018207   +0.01781657   +3.30161197
 H   +5.85236504   +2.88392228   +0.55208521
 H   +0.57437716   -0.83004421   -0.40341457
 H   +6.82975954   +2.32292000   +1.88651242
 H   +5.89901685   +1.17068280   +0.94105817
 H   +4.68225075   +3.37266003   +2.73686364
 H   +3.03432317   +1.83729347   +3.35045046
 H   +3.57238946   -0.55377806   +3.06555019
 H   +4.52617838   -0.22213188   +1.62609356
 H   +2.45802111   -1.26551708   +0.89504220
 H   +2.43984172   +0.51227084   +0.43552740
 H   -1.03638922   -0.11157852   -0.29298865
 H   +0.37954672   +0.94017234   -0.39458929
 H   +2.56138618   -2.17778948   +0.54140561
22
 * E =  +8.705 kcal/mol ; (15) 358_174_173_121
 C   +0.00000000   +0.00000000   +0.00000000
 O   +0.00000000   +0.00000000   +1.40990381
 C   +1.14418904   +0.00000000   +2.10294549
 C   +2.42444539   -0.03804977   +1.35001177
 C   +3.65704549   +0.10808589   +2.19800472
 C   +4.90573733   -0.10715523   +1.41074981
 C   +5.90545179   +0.74992867   +1.23229447
 C   +6.03180032   +2.13184451   +1.77196594
 O   +1.10232828   +0.00308121   +3.30129512
 H   +6.90441347   +2.21065753   +2.41903329
 H   +0.58609550   -0.82156908   -0.40363726
 H   +6.17718679   +2.84685427   +0.96345627
 H   +5.16548384   +2.44569840   +2.34482571
 H   +6.74023569   +0.41286890   +0.63048335
 H   +4.99118034   -1.08037313   +0.94199696
 H   +3.64052881   +1.09102442   +2.66538962
 H   +3.59371750   -0.60624196   +3.01825021
 H   +2.47137390   -1.22985692   +0.86138308
 H   +2.43639511   +0.55492942   +0.44083436
 H   -1.03468317   -0.12569370   -0.29335026
 H   +0.36665825   +0.94514125   -0.39522087
 H   +2.57667042   -2.13505322   +0.50685482
22
 * E =  +8.743 kcal/mol ; (16) 358_175_179_256
 C   +0.00000000   +0.00000000   +0.00000000
 O   +0.00000000   +0.00000000   +1.40979620
 C   +1.14519458   +0.00000000   +2.10161684
 C   +2.42430360   -0.04475571   +1.34825496
 C   +3.66019913   +0.07574354   +2.19736462
 C   +4.90910691   -0.00324752   +1.38263127
 C   +5.73293683   -1.04166198   +1.28777847
 C   +5.60792576   -2.36084544   +1.96613120
 O   +1.10479726   +0.00388314   +3.30016569
 H   +5.57764391   -3.16342258   +1.23045694
 H   +0.58274564   -0.82399219   -0.40361490
 H   +6.47126215   -2.55109903   +2.60241267
 H   +4.71487360   -2.43924994   +2.57752416
 H   +6.59651583   -0.93108955   +0.64385466
 H   +5.14658930   +0.88070260   +0.80329954
 H   +3.61907504   +1.03298149   +2.72015837
 H   +3.62627317   -0.68001344   +2.97623989
 H   +2.47532858   -1.23189932   +0.85159188
 H   +2.43978521   +0.55398563   +0.44249006
 H   -1.03517362   -0.12113401   -0.29357028
 H   +0.37054038   +0.94368421   -0.39526917
 H   +2.60571115   -2.13209914   +0.49799264
22
 * E =  +9.538 kcal/mol ; (17) 357_178_067_117
 C   +0.00000000   +0.00000000   +0.00000000
 O   +0.00000000   +0.00000000   +1.40984827
 C   +1.14217951   +0.00000000   +2.10591449
 C   +2.42206056   -0.07829047   +1.35651000
 C   +3.67279127   -0.03343004   +2.19771552
 C   +3.84797961   -1.22863413   +3.07801178
 C   +4.83181930   -2.11998725   +3.01677970
 C   +5.98412188   -2.15900867   +2.07399542
 O   +1.09380659   +0.04896724   +3.30364325
 H   +6.92698315   -2.10783456   +2.61713772
 H   +0.56852601   -0.83288751   -0.40470323
 H   +5.99262542   -3.09786003   +1.52179721
 H   +5.97331691   -1.34989768   +1.35085165
 H   +4.80396974   -2.92694727   +3.73843441
 H   +3.08393420   -1.35441819   +3.83145826
 H   +4.52667862   +0.09637931   +1.53960817
 H   +3.61369071   +0.85837188   +2.82588667
 H   +2.42905320   -1.25045772   +0.79353758
 H   +2.44839741   +0.56687750   +0.48331284
 H   -1.03720170   -0.10363579   -0.29315305
 H   +0.38508852   +0.93830650   -0.39441368
 H   +2.52239600   -2.11786365   +0.38717249
22
 * E =  +9.771 kcal/mol ; (18) 356_180_073_248
 C   +0.00000000   +0.00000000   +0.00000000
 O   +0.00000000   +0.00000000   +1.40981520
 C   +1.14278724   +0.00000000   +2.10648120
 C   +2.42408924   -0.08139707   +1.35670552
 C   +3.66542769   -0.07885610   +2.21215140
 C   +3.88200983   -1.36411419   +2.94621362
 C   +3.80104446   -1.56690017   +4.25590032
 C   +3.45318583   -0.58045943   +5.31202542
 O   +1.09578721   +0.06404770   +3.30245391
 H   +2.53565672   -0.88297069   +5.81394278
 H   +0.55393255   -0.84188498   -0.40578170
 H   +4.23630596   -0.53464430   +6.06782984
 H   +3.28415568   +0.41512710   +4.91859819
 H   +3.99646695   -2.57309088   +4.60644104
 H   +4.13126130   -2.21062775   +2.31772853
 H   +4.52201307   +0.11150967   +1.56641301
 H   +3.59723420   +0.75588064   +2.90762627
 H   +2.41479843   -1.23552412   +0.75144302
 H   +2.46173959   +0.58517078   +0.49988853
 H   -1.03888608   -0.08606959   -0.29294477
 H   +0.40051658   +0.93172364   -0.39476564
 H   +2.48662713   -2.08193295   +0.29956090
