22
 * E =  +0.000 kcal/mol ; (1) 178_158_290_109
 C   +0.00000000   +0.00000000   +0.00000000
 O   +0.00000000   +0.00000000   +1.41705106
 C   +1.20063018   +0.00000000   +1.98664211
 C   +1.11160812   +0.04305314   +3.48144909
 C   +2.38119944   -0.47424939   +4.13637725
 C   +2.54940052   -1.92927156   +3.95042296
 C   +3.35693409   -2.69449411   +3.24752192
 C   +4.45500655   -2.22650080   +2.34872662
 O   +2.22440848   -0.00466932   +1.35730524
 H   +5.41416219   -2.61962316   +2.68292901
 H   +0.50843014   -0.88172643   -0.37678152
 H   +4.29108202   -2.58905724   +1.33558521
 H   +4.51071317   -1.14457468   +2.30259600
 H   +3.22110579   -3.76842173   +3.31963948
 H   +1.60233323   -2.66889549   +4.70739321
 H   +3.24000312   +0.05247802   +3.71838858
 H   +2.34768276   -0.24418898   +5.20068916
 H   +0.93405346   +1.08267620   +3.75807903
 H   +0.23727434   -0.51799257   +3.80105765
 H   -1.04086192   -0.00397433   -0.29592324
 H   +0.50229767   +0.88459835   -0.37890406
 H   +1.03600198   -3.14046639   +5.17827010
22
 * E =  +0.453 kcal/mol ; (2) 180_178_177_120
 C   +0.00000000   +0.00000000   +0.00000000
 O   +0.00000000   +0.00000000   +1.41703157
 C   +1.20138978   +0.00000000   +1.98778943
 C   +1.10281153   +0.00580747   +3.48085134
 C   +2.46711047   -0.03296261   +4.14342382
 C   +2.36924572   +0.04111283   +5.61277653
 C   +2.72886106   -0.73008364   +6.61646319
 C   +3.42230131   -2.05078363   +6.51237493
 O   +2.22541912   -0.00337386   +1.35947844
 H   +4.38417698   -2.01809433   +7.02145162
 H   +0.50638861   -0.88236622   -0.37846383
 H   +2.83325402   -2.83100634   +6.99149332
 H   +3.59708111   -2.34275282   +5.48148668
 H   +2.51227536   -0.38463074   +7.62146530
 H   +1.73467971   +1.23603788   +6.04178789
 H   +2.99502042   -0.93939477   +3.84325947
 H   +3.06542988   +0.79664040   +3.76796473
 H   +0.54912683   +0.89575466   +3.77778525
 H   +0.48959260   -0.83997319   +3.78691687
 H   -1.04089444   -0.00120194   -0.29589884
 H   +0.50411340   +0.88366444   -0.37847046
 H   +1.35149939   +1.96765004   +6.33101059
22
 * E =  +1.141 kcal/mol ; (3) 180_321_299_111
 C   +0.00000000   +0.00000000   +0.00000000
 O   +0.00000000   +0.00000000   +1.41605102
 C   +1.20464034   +0.00000000   +1.98518644
 C   +1.12095317   +0.00705418   +3.48180917
 C   +0.00396074   +0.88568520   +4.03067898
 C   +0.16926882   +2.30006306   +3.64206276
 C   -0.46886333   +3.12388370   +2.83800675
 C   -1.68638568   +2.80206115   +2.03270638
 O   +2.22361972   -0.03080064   +1.35198954
 H   -2.50487697   +3.47129475   +2.29311972
 H   +0.49047057   -0.89077894   -0.37979392
 H   -1.48589083   +2.93955832   +0.97087844
 H   -2.01373194   +1.77837800   +2.18201928
 H   -0.08700265   +4.13467023   +2.74419580
 H   +1.29066683   +2.90049036   +4.27573037
 H   -0.95954564   +0.51607635   +3.67827777
 H   -0.00042665   +0.80212472   +5.11715447
 H   +0.97148652   -1.02395427   +3.80258268
 H   +2.09166669   +0.32372247   +3.85013204
 H   -1.04063518   +0.01826166   -0.29763352
 H   +0.52169460   +0.87483421   -0.37555797
 H   +1.96416198   +3.29437604   +4.66732239
22
 * E =  +1.518 kcal/mol ; (4) 182_205_076_128
 C   +0.00000000   +0.00000000   +0.00000000
 O   +0.00000000   +0.00000000   +1.41741878
 C   +1.20152620   +0.00000000   +1.98516561
 C   +1.11311885   -0.05348605   +3.48109993
 C   +2.34034347   +0.54422536   +4.15078000
 C   +2.34966682   +2.02048158   +4.11718290
 C   +2.49941681   +2.96894535   +5.01747750
 C   +2.73728205   +2.77358106   +6.48054860
 O   +2.22480230   +0.00458357   +1.35658052
 H   +3.69478603   +3.20216397   +6.77241621
 H   +0.49883294   -0.88664535   -0.37868143
 H   +1.96988245   +3.27872330   +7.06467637
 H   +2.74100725   +1.72469842   +6.76106824
 H   +2.45446196   +3.99760381   +4.67680334
 H   +2.14202433   +2.57506736   +2.82327919
 H   +2.38386511   +0.20647189   +5.18758299
 H   +3.22647098   +0.16011209   +3.64663843
 H   +0.19649252   +0.43036411   +3.80584467
 H   +1.02357075   -1.10850008   +3.74143290
 H   -1.04092418   +0.00801501   -0.29569616
 H   +0.51229326   +0.87978889   -0.37593040
 H   +2.00721978   +2.98411162   +2.06574879
22
 * E =  +1.610 kcal/mol ; (5) 182_316_178_117
 C   +0.00000000   +0.00000000   +0.00000000
 O   +0.00000000   +0.00000000   +1.41697389
 C   +1.20331500   +0.00000000   +1.98793425
 C   +1.11928568   -0.03834244   +3.48249339
 C   +0.07187380   +0.90251944   +4.06649591
 C   -0.00510978   +0.78960049   +5.53471878
 C   +0.21633836   +1.59680323   +6.54993284
 C   +0.65777476   +3.02293552   +6.46688873
 O   +2.22356233   +0.00927656   +1.35458522
 H   -0.07737724   +3.67827028   +6.93106950
 H   +0.50402912   -0.88401188   -0.37769319
 H   +1.59524895   +3.16394144   +7.00198622
 H   +0.80192617   +3.35007741   +5.44181356
 H   +0.06542398   +1.20342789   +7.54925201
 H   -0.41674297   -0.50720158   +5.94215669
 H   +0.30231773   +1.93285658   +3.78619346
 H   -0.89706780   +0.67095961   +3.62721560
 H   +0.88191894   -1.06346467   +3.76813949
 H   +2.10874453   +0.18379881   +3.86768403
 H   -1.04077827   +0.00200560   -0.29650607
 H   +0.50784834   +0.88158928   -0.37810137
 H   -0.67691012   -1.29502208   +6.21722801
22
 * E =  +1.749 kcal/mol ; (6) 182_325_182_242
 C   +0.00000000   +0.00000000   +0.00000000
 O   +0.00000000   +0.00000000   +1.41720494
 C   +1.20430691   +0.00000000   +1.98659377
 C   +1.12868453   -0.04050637   +3.48205132
 C   -0.04979934   +0.71795243   +4.07787591
 C   -0.03673529   +0.67689894   +5.55226832
 C   -0.84366298   +0.20878811   +6.48044813
 C   -2.14862389   -0.48416698   +6.25116268
 O   +2.22315350   +0.00387453   +1.35133944
 H   -2.13555759   -1.47923218   +6.69265167
 H   +0.50151706   -0.88537310   -0.37777107
 H   -2.96093743   +0.06482182   +6.72464108
 H   -2.38023156   -0.58547517   +5.19535951
 H   -0.54748265   +0.33393188   +7.51623417
 H   +1.12520305   +1.28995640   +6.09360340
 H   -0.01495459   +1.75602861   +3.74487485
 H   -0.98343363   +0.30449967   +3.69620888
 H   +1.07177083   -1.09018842   +3.77079537
 H   +2.07421987   +0.33698387   +3.85908443
 H   -1.04079064   +0.00538419   -0.29652831
 H   +0.51056496   +0.88012468   -0.37766892
 H   +1.82623286   +1.66937217   +6.45110287
22
 * E =  +1.766 kcal/mol ; (7) 179_313_297_244
 C   +0.00000000   +0.00000000   +0.00000000
 O   +0.00000000   +0.00000000   +1.41647129
 C   +1.20333353   +0.00000000   +1.98589780
 C   +1.10983944   +0.03446035   +3.48184723
 C   +0.12873995   +1.07701663   +4.00816825
 C   +0.51680879   +2.45882205   +3.66186377
 C   +0.87613505   +3.52421132   +4.34596136
 C   +0.99749947   +3.62345559   +5.83262457
 O   +2.22460097   -0.04439607   +1.35694812
 H   +2.01147095   +3.90206244   +6.11449167
 H   +0.50256009   -0.88417161   -0.37930593
 H   +0.33454330   +4.39542580   +6.21982894
 H   +0.75398328   +2.68943123   +6.32966377
 H   +1.10996359   +4.42490377   +3.78916434
 H   +0.49463451   +2.72498375   +2.26636533
 H   -0.86120996   +0.86415569   +3.60759211
 H   +0.06087676   +0.97857887   +5.09326398
 H   +0.79164759   -0.95539741   +3.80820893
 H   +2.11134553   +0.20729092   +3.86089902
 H   -1.04070132   +0.00600478   -0.29683407
 H   +0.50864458   +0.88370265   -0.37292988
 H   +0.49426760   +2.95023598   +1.42205232
22
 * E =  +3.383 kcal/mol ; (8) 182_200_072_356
 C   +0.00000000   +0.00000000   +0.00000000
 O   +0.00000000   +0.00000000   +1.41737125
 C   +1.20324693   +0.00000000   +1.98688074
 C   +1.10732399   -0.05565266   +3.48095067
 C   +2.37211597   +0.42821548   +4.16717541
 C   +2.64937236   +1.87825172   +4.11984654
 C   +2.18403233   +2.99532772   +3.60336105
 C   +0.99954238   +3.22469143   +2.71765313
 O   +2.22584652   +0.01479281   +1.35884940
 H   +0.37916308   +4.02161204   +3.12402400
 H   +0.50925608   -0.88064463   -0.37848566
 H   +1.33090705   +3.55015808   +1.73225211
 H   +0.37082937   +2.35230571   +2.58739296
 H   +2.74813961   +3.89374617   +3.83450590
 H   +3.78911204   +2.13374050   +4.87019842
 H   +2.33627829   +0.12492028   +5.21365641
 H   +3.22264193   -0.09246062   +3.72658469
 H   +0.22300929   +0.48241909   +3.81021490
 H   +0.93893693   -1.10271853   +3.73640268
 H   -1.04075569   -0.00395742   -0.29626915
 H   +0.50235843   +0.88529011   -0.37712439
 H   +4.51023848   +2.32848492   +5.34981263
22
 * E =  +8.057 kcal/mol ; (9) 003_192_072_250
 C   +0.00000000   +0.00000000   +0.00000000
 O   +0.00000000   +0.00000000   +1.40944560
 C   +1.14168191   +0.00000000   +2.10514628
 C   +2.43619843   +0.06749028   +1.33827314
 C   +3.62704638   -0.24283998   +2.22952366
 C   +3.69392410   -1.67558260   +2.57919206
 C   +3.50625444   -2.38300104   +3.67229698
 C   +3.13076394   -1.84560550   +5.01430429
 O   +1.09183054   -0.01793384   +3.30050144
 H   +2.17820463   -2.26577238   +5.33150354
 H   +0.37810764   -0.93951272   -0.39638389
 H   +3.87579151   -2.12471445   +5.75793220
 H   +3.02169773   -0.76709256   +5.00390863
 H   +3.62840581   -3.45866507   +3.60219871
 H   +4.03149518   -2.46699483   +1.44850708
 H   +4.53915640   +0.04690586   +1.70863210
 H   +3.56357612   +0.35811924   +3.13687911
 H   +2.41275919   -0.61423351   +0.49039251
 H   +2.51981774   +1.07298719   +0.92211400
 H   -1.03596440   +0.11471997   -0.29345802
 H   +0.57636859   +0.82853387   -0.40454224
 H   +4.24950842   -2.96061345   +0.75936030
22
 * E =  +8.261 kcal/mol ; (10) 001_181_178_122
 C   +0.00000000   +0.00000000   +0.00000000
 O   +0.00000000   +0.00000000   +1.40932562
 C   +1.14344673   +0.00000000   +2.10356452
 C   +2.43296485   +0.02543654   +1.33080736
 C   +3.63419382   +0.00344410   +2.25783921
 C   +4.90448928   -0.01356570   +1.50944225
 C   +5.97003038   +0.75649983   +1.45311496
 C   +6.19869023   +2.00754549   +2.23947084
 O   +1.09789484   -0.01504862   +3.29909031
 H   +7.07961051   +1.90474785   +2.87092933
 H   +0.47495867   -0.89253256   -0.40044079
 H   +6.37889761   +2.85024919   +1.57421512
 H   +5.35488495   +2.25228266   +2.87702488
 H   +6.77008898   +0.46344988   +0.78207343
 H   +4.99246681   -1.13550448   +0.64474938
 H   +3.59280529   +0.86405954   +2.92627963
 H   +3.56467677   -0.87313966   +2.90070963
 H   +2.46427324   -0.82576538   +0.65045457
 H   +2.45617075   +0.91279992   +0.69818192
 H   -1.04207512   +0.00698039   -0.29367602
 H   +0.48718187   +0.88523692   -0.40187908
 H   +5.06729989   -1.82227232   +0.10663310
22
 * E = +10.046 kcal/mol ; (11) 003_192_080_133
 C   +0.00000000   +0.00000000   +0.00000000
 O   +0.00000000   +0.00000000   +1.40896317
 C   +1.14095714   +0.00000000   +2.10715451
 C   +2.43571009   +0.06732451   +1.33754254
 C   +3.63735960   -0.23061119   +2.21985138
 C   +3.83170471   -1.67720295   +2.44713157
 C   +4.86618684   -2.48933801   +2.38946606
 C   +6.27371599   -2.11111865   +2.05622616
 O   +1.09014418   -0.01196973   +3.30149508
 H   +6.93208804   -2.31012452   +2.90044327
 H   +0.37528950   -0.94048758   -0.39691073
 H   +6.64228864   -2.70045752   +1.21831784
 H   +6.36877941   -1.06014087   +1.80032644
 H   +4.69607506   -3.53656465   +2.61435705
 H   +2.64733874   -2.38683195   +2.79564793
 H   +4.53338656   +0.18323911   +1.75401323
 H   +3.49769493   +0.27599911   +3.17337776
 H   +2.41162968   -0.60744465   +0.48474915
 H   +2.50895145   +1.07670456   +0.92906156
 H   -1.03571114   +0.11745227   -0.29343910
 H   +0.57845086   +0.82701628   -0.40490209
 H   +1.96645274   -2.89143989   +2.99217716
22
 * E = +10.417 kcal/mol ; (12) 007_090_182_245
 C   +0.00000000   +0.00000000   +0.00000000
 O   +0.00000000   +0.00000000   +1.41000551
 C   +1.13891486   +0.00000000   +2.11305095
 C   +2.44351610   +0.15209820   +1.38005353
 C   +2.81117495   +1.63430581   +1.26828242
 C   +4.06372815   +1.83218450   +0.51641130
 C   +5.26450755   +2.28765165   +0.80187240
 C   +5.72530065   +2.79097665   +2.13199120
 O   +1.08169081   -0.06414789   +3.30668588
 H   +6.57934968   +2.21376589   +2.48166103
 H   +0.39531015   -0.93301898   -0.39473047
 H   +6.04919379   +3.82750106   +2.05557617
 H   +4.94735833   +2.73375589   +2.88676017
 H   +5.99936557   +2.30703502   +0.00459242
 H   +3.91773769   +1.42638202   -0.83861708
 H   +2.00547986   +2.18163712   +0.77573055
 H   +2.89729593   +2.05304341   +2.27197435
 H   +3.19636353   -0.35956363   +1.96977127
 H   +2.42398302   -0.30010322   +0.39259757
 H   -1.03827591   +0.09468424   -0.29277038
 H   +0.56028112   +0.83777010   -0.40815123
 H   +3.82705562   +1.18814664   -1.67442345
22
 * E = +10.846 kcal/mol ; (13) 355_267_183_239
 C   +0.00000000   +0.00000000   +0.00000000
 O   +0.00000000   +0.00000000   +1.40892400
 C   +1.13944824   +0.00000000   +2.11233444
 C   +2.44831841   -0.10562188   +1.37783377
 C   +2.87627939   -1.57208105   +1.27855950
 C   +4.18608651   -1.71767294   +0.61774376
 C   +4.62769016   -2.34601934   -0.45091045
 C   +3.81700750   -3.18563497   -1.38532552
 O   +1.08022154   +0.03193690   +3.30672681
 H   +3.88188722   -2.79965382   -2.40118605
 H   +0.57087354   -0.83187244   -0.40616256
 H   +4.19587279   -4.20599505   -1.40670939
 H   +2.76930400   -3.22397355   -1.10265886
 H   +5.68326576   -2.26075894   -0.68439471
 H   +5.21241462   -1.01193982   +1.30478359
 H   +2.92075648   -1.98271110   +2.28704150
 H   +2.12366085   -2.15378187   +0.73986736
 H   +2.41540898   +0.34071831   +0.38879731
 H   +3.17874374   +0.43807092   +1.96838662
 H   -1.03681039   -0.10838716   -0.29348735
 H   +0.38386138   +0.93715320   -0.39637089
 H   +5.86399585   -0.59605473   +1.70831539
22
 * E = +11.016 kcal/mol ; (14) 000_180_180_000
 C   +0.00000000   +0.00000000   +0.00000000
 O   +0.00000000   +0.00000000   +1.40876319
 C   +1.14171837   +0.00000000   +2.10672586
 C   +2.43382019   -0.00000413   +1.33349421
 C   +3.62438653   +0.00006255   +2.27302552
 C   +4.95749393   +0.00005856   +1.63993122
 C   +5.53345202   +0.00002736   +0.45604938
 C   +4.92285635   -0.00002449   -0.91070970
 O   +1.09225336   +0.00000552   +3.30144018
 H   +5.25366980   +0.87449391   -1.46885859
 H   +0.47975044   -0.88943867   -0.40198868
 H   +5.25377246   -0.87451589   -1.46883912
 H   +3.83984308   -0.00008797   -0.89985328
 H   +6.61921183   +0.00004919   +0.45795803
 H   +5.92270994   +0.00011265   +2.63768519
 H   +3.54777917   +0.86221565   +2.93499056
 H   +3.54781013   -0.86203102   +2.93507085
 H   +2.45408145   -0.87259768   +0.68125208
 H   +2.45403685   +0.87251981   +0.68116062
 H   -1.04216809   -0.00004825   -0.29355347
 H   +0.47967366   +0.88947990   -0.40198811
 H   +6.56637911   +0.00014750   +3.24801369
22
 * E = +12.646 kcal/mol ; (15) 013_081_058_105
 C   +0.00000000   +0.00000000   +0.00000000
 O   +0.00000000   +0.00000000   +1.40821594
 C   +1.14011628   +0.00000000   +2.11446564
 C   +2.43137860   +0.29072670   +1.39651965
 C   +2.66180597   +1.79445623   +1.20151811
 C   +2.68736234   +2.55547444   +2.46668953
 C   +3.63986591   +3.10901966   +3.18592987
 C   +5.10291244   +3.09629728   +2.87971179
 O   +1.08736588   -0.18514158   +3.29392344
 H   +5.48990610   +4.11161001   +2.81192799
 H   +0.43616587   -0.91554124   -0.39398500
 H   +5.65285771   +2.59710150   +3.67579421
 H   +5.32595958   +2.58623922   +1.94721080
 H   +3.34929261   +3.62071882   +4.09654137
 H   +1.39178448   +2.76618363   +3.01681538
 H   +3.60786815   +1.92478436   +0.67261211
 H   +1.89162930   +2.21151809   +0.55212446
 H   +3.21967694   -0.11358887   +2.02193219
 H   +2.47043171   -0.20823262   +0.43113790
 H   -1.04132421   +0.04695447   -0.29394632
 H   +0.52013052   +0.86064567   -0.41231306
 H   +0.60979702   +2.93314883   +3.35616109
