22
 * E =  +0.000 kcal/mol ; (1) 178_153_290_102
 C   +0.00000000   +0.00000000   +0.00000000
 C   +0.00000000   +0.00000000   +1.49750643
 O   +1.23218145   +0.00000000   +1.99780031
 O   -0.98426552   +0.02942624   +2.18639294
 C   +1.31317029   +0.05413879   +3.41127259
 H   +2.36914685   +0.04986901   +3.64791979
 H   +0.84100463   +0.95791819   +3.78360086
 H   +0.81915870   -0.80666649   +3.85062135
 C   -1.24947585   -0.64712264   -0.57649979
 C   -1.24978596   -2.12602656   -0.34295561
 C   -1.94572892   -2.79444187   +0.59240658
 C   -3.02881847   -2.27120482   +1.46161097
 H   +0.90654484   -0.48471512   -0.35398399
 H   -2.12766838   -0.18034497   -0.14040824
 H   -0.46880695   -2.67093911   -0.85988132
 H   -1.74419319   -3.85477517   +0.68181189
 H   -3.14806043   -1.19718496   +1.38656663
 H   -3.97516740   -2.75254593   +1.21144771
 H   -2.82231081   -2.50202801   +2.50535201
 H   +0.06388194   +1.04382648   -0.31019631
 H   -2.36558468   -2.56787307   -1.92146488
 H   -1.27698931   -0.44750748   -1.64555749
22
 * E =  +0.385 kcal/mol ; (2) 182_191_065_081
 C   +0.00000000   +0.00000000   +0.00000000
 C   +0.00000000   +0.00000000   +1.49762165
 O   +1.23615829   +0.00000000   +1.98964741
 O   -0.98001927   -0.01886944   +2.19250400
 C   +1.32775247   -0.03496832   +3.40307445
 H   +2.38552684   -0.02935792   +3.63157684
 H   +0.83855832   +0.83225420   +3.83524126
 H   +0.85749112   -0.93304283   +3.79128782
 C   -1.37637945   +0.27614049   -0.58077627
 C   -1.86116413   +1.65529287   -0.24418976
 C   -1.50590702   +2.77841002   -0.88586247
 C   -0.70114705   +2.86799870   -2.13259682
 H   +0.36868382   -0.97617042   -0.31732538
 H   -1.33520284   +0.13383926   -1.65793313
 H   -2.39690092   +1.75034438   +0.68945529
 H   -1.86909135   +3.71742154   -0.48878756
 H   -1.29535777   +3.28356990   -2.94694324
 H   +0.14889348   +3.53554084   -1.99646030
 H   -0.32035905   +1.90381992   -2.45572709
 H   +0.73145057   +0.72960130   -0.34246877
 H   -3.69387200   +1.33881120   -1.06152408
 H   -2.07889363   -0.45502958   -0.18982818
22
 * E =  +0.519 kcal/mol ; (3) 180_178_183_201
 C   +0.00000000   +0.00000000   +0.00000000
 C   +0.00000000   +0.00000000   +1.49542812
 O   +1.23733343   +0.00000000   +1.98615420
 O   -0.97885316   +0.00256916   +2.19232630
 C   +1.33026472   +0.00871589   +3.39957851
 H   +2.38835406   +0.00845178   +3.62684833
 H   +0.85254248   +0.89504963   +3.80522251
 H   +0.84952059   -0.87071800   +3.81655720
 C   -1.39803141   -0.04323821   -0.57700032
 C   -1.40134597   -0.12371997   -2.07191182
 C   -2.41552873   +0.21980835   -2.87998056
 C   -3.67954055   +0.89017305   -2.48119914
 H   +0.59608494   -0.84924595   -0.33374928
 H   -1.91445667   -0.91347106   -0.16934547
 H   -0.57089139   -0.65638038   -2.51934253
 H   -2.29397168   +0.02785309   -3.93804790
 H   -4.54103527   +0.30511934   -2.80116033
 H   -3.75684113   +1.03649598   -1.40901568
 H   -3.76761356   +1.86346940   -2.96443172
 H   +0.53727139   +0.88625203   -0.33671937
 H   -0.24815553   +1.54023206   -2.37597165
 H   -1.95599654   +0.82115775   -0.22768686
22
 * E =  +0.561 kcal/mol ; (4) 179_167_299_231
 C   +0.00000000   +0.00000000   +0.00000000
 C   +0.00000000   +0.00000000   +1.49707357
 O   +1.23485571   +0.00000000   +1.98913136
 O   -0.98080748   +0.02582922   +2.19205988
 C   +1.32592400   +0.02899349   +3.40244880
 H   +2.38365796   +0.02365083   +3.63111375
 H   +0.85411658   +0.92449494   +3.79482658
 H   +0.83823964   -0.84144316   +3.82976137
 C   -1.36397571   -0.30501556   -0.59152421
 C   -1.92545178   -1.64485521   -0.23161259
 C   -2.41954980   -2.55788817   -1.08516580
 C   -2.34975334   -2.55144618   -2.56920879
 H   +0.75408838   -0.70411952   -0.34321284
 H   -2.06548527   +0.44691946   -0.22848182
 H   -2.12184192   -1.78630102   +0.82208757
 H   -2.88492579   -3.43186206   -0.64755794
 H   -3.34756050   -2.61530420   -3.00207904
 H   -1.86784257   -1.66636876   -2.97067565
 H   -1.80000969   -3.42230476   -2.92685926
 H   +0.33405003   +0.98991009   -0.31327279
 H   -0.25371376   -2.65057816   +0.25876158
 H   -1.30277276   -0.18710116   -1.66942554
22
 * E =  +0.579 kcal/mol ; (5) 180_182_178_085
 C   +0.00000000   +0.00000000   +0.00000000
 C   +0.00000000   +0.00000000   +1.49681160
 O   +1.23797107   +0.00000000   +1.98701435
 O   -0.97856935   -0.00341995   +2.19322494
 C   +1.33142705   -0.00700239   +3.40065459
 H   +2.38958170   -0.00398073   +3.62757669
 H   +0.84874835   +0.87177393   +3.81665776
 H   +0.85590646   -0.89396107   +3.80755759
 C   -1.40115860   +0.04111161   -0.58237548
 C   -1.36008088   +0.08724268   -2.07910662
 C   -1.26716703   -0.97522853   -2.89349608
 C   -1.35487473   -2.40438816   -2.49605233
 H   +0.53821618   -0.88625571   -0.33543184
 H   -1.96375293   -0.81795899   -0.22742509
 H   -1.21959695   +1.06558901   -2.52052025
 H   -1.16346058   -0.78456478   -3.95379266
 H   -2.23618693   -2.87247534   -2.93528519
 H   -0.49255712   -2.95960807   -2.86300689
 H   -1.40726937   -2.53819635   -1.42011505
 H   +0.59641814   +0.84749287   -0.33631457
 H   -3.32642469   +0.50159333   -2.26068381
 H   -1.92230215   +0.91379780   -0.19728354
22
 * E =  +0.826 kcal/mol ; (6) 179_314_300_104
 C   +0.00000000   +0.00000000   +0.00000000
 C   +0.00000000   +0.00000000   +1.49785809
 O   +1.23670970   +0.00000000   +1.99351961
 O   -0.97903835   -0.01721024   +2.19262661
 C   +1.32286378   +0.01570317   +3.40633317
 H   +2.37970557   +0.03760852   +3.63999630
 H   +0.82404333   +0.89452761   +3.80378577
 H   +0.85737043   -0.87075147   +3.82574602
 C   +0.96912273   +1.00874541   -0.60876051
 C   +0.63369404   +2.40136936   -0.17537676
 C   +1.28140221   +3.13331471   +0.74686817
 C   +2.59555538   +2.84230281   +1.37442833
 H   -1.02162768   +0.19198297   -0.31370122
 H   +1.98667977   +0.74714728   -0.33558424
 H   -0.33672867   +2.76062152   -0.49549884
 H   +0.83299754   +4.07964665   +1.02143333
 H   +3.31609155   +3.61850213   +1.11522709
 H   +2.51037513   +2.84631867   +2.46086143
 H   +3.00281799   +1.88290142   +1.07664133
 H   +0.26115499   -1.00577371   -0.32915422
 H   +1.31970283   +3.29326222   -1.80996304
 H   +0.90033790   +0.93235727   -1.69199948
22
 * E =  +1.398 kcal/mol ; (7) 178_032_059_080
 C   +0.00000000   +0.00000000   +0.00000000
 C   +0.00000000   +0.00000000   +1.49920313
 O   +1.23092075   +0.00000000   +2.00871090
 O   -0.98618917   +0.03195716   +2.18357536
 C   +1.30043364   +0.04318240   +3.42303109
 H   +2.35437180   +0.03435032   +3.66889968
 H   +0.82744298   +0.94554132   +3.79755526
 H   +0.79933206   -0.81876420   +3.85215250
 C   +1.17469062   -0.72277248   -0.64563961
 C   +1.24198199   -2.16369217   -0.23449255
 C   +0.49358615   -3.15322988   -0.74418120
 C   -0.42432524   -3.05675182   -1.90865652
 H   -0.00942366   +1.04645908   -0.30842195
 H   +1.08028857   -0.63488040   -1.72549318
 H   +1.81607174   -2.37439144   +0.65743901
 H   +0.58572078   -4.13309314   -0.29412104
 H   -0.09353075   -3.71066699   -2.71575108
 H   -1.42722397   -3.38238890   -1.63518112
 H   -0.49665040   -2.04783332   -2.30302731
 H   -0.94863510   -0.43013270   -0.30870493
 H   +2.99629123   -2.48187314   -1.20578772
 H   +2.10033304   -0.22570076   -0.36983262
22
 * E =  +1.418 kcal/mol ; (8) 180_056_179_083
 C   +0.00000000   +0.00000000   +0.00000000
 C   +0.00000000   +0.00000000   +1.49669918
 O   +1.23853558   +0.00000000   +1.98955033
 O   -0.97699254   +0.00286682   +2.19520177
 C   +1.32987909   +0.00322951   +3.40319908
 H   +2.38755657   +0.00322193   +3.63248988
 H   +0.84978082   +0.88710008   +3.81138823
 H   +0.84934119   -0.87844639   +3.81542137
 C   +0.78975466   -1.16361809   -0.59564759
 C   +0.72993416   -1.14061539   -2.09257440
 C   +1.51726281   -0.40211102   -2.88885051
 C   +2.69109235   +0.40458069   -2.46504545
 H   +0.43816033   +0.93863548   -0.33850304
 H   +1.81612155   -1.11618730   -0.24301958
 H   -0.12528675   -1.62580370   -2.54419332
 H   +1.31169617   -0.41938063   -3.95119442
 H   +3.60970190   +0.00125492   -2.89207384
 H   +2.60406736   +1.42834457   -2.82657365
 H   +2.81002366   +0.43875862   -1.38645855
 H   -1.03567072   -0.02021060   -0.32359283
 H   +1.61673196   -2.95482203   -2.27989408
 H   +0.37935917   -2.10333488   -0.23162844
22
 * E =  +1.617 kcal/mol ; (9) 182_321_184_202
 C   +0.00000000   +0.00000000   +0.00000000
 C   +0.00000000   +0.00000000   +1.49624254
 O   +1.23289636   +0.00000000   +2.00166463
 O   -0.98326635   -0.02357283   +2.18587441
 C   +1.30807994   -0.04132374   +3.41568454
 H   +2.36301519   -0.03036966   +3.65718050
 H   +0.80738211   +0.81991849   +3.84660151
 H   +0.83858016   -0.94431140   +3.79313705
 C   +1.07028808   +0.87506334   -0.62944468
 C   +0.96486867   +0.91850553   -2.12266012
 C   +1.95102751   +1.22928518   -2.97722302
 C   +3.38269566   +1.44190686   -2.64378320
 H   -0.99632542   +0.29838340   -0.31364689
 H   +0.96434698   +1.89183928   -0.24475505
 H   -0.03801322   +0.85002889   -2.52610829
 H   +1.69450847   +1.29597845   -4.02642537
 H   +4.00814883   +0.70667856   -3.15039900
 H   +3.71483793   +2.42134764   -2.98623296
 H   +3.58016026   +1.37692786   -1.57894300
 H   +0.13766759   -1.03303347   -0.32267896
 H   +1.01154297   -1.10934044   -2.39597822
 H   +2.04968475   +0.52888815   -0.31353332
22
 * E =  +1.659 kcal/mol ; (10) 180_175_172_282
 C   +0.00000000   +0.00000000   +0.00000000
 C   +0.00000000   +0.00000000   +1.49656896
 O   +1.23741253   +0.00000000   +1.98695715
 O   -0.97832588   +0.00517317   +2.19450025
 C   +1.33097419   +0.01063007   +3.40039215
 H   +2.38915516   +0.00449715   +3.62713253
 H   +0.85872270   +0.90030321   +3.80527235
 H   +0.84530466   -0.86536302   +3.81877531
 C   -1.39878767   -0.12224368   -0.57564817
 C   -1.47109848   +0.06040047   -2.06549995
 C   -1.42670293   +1.24907656   -2.69131901
 C   -1.14917248   +2.56121008   -2.05185761
 H   +0.64567907   -0.80534016   -0.34427141
 H   -1.80824623   -1.09201489   -0.30515185
 H   -1.75845093   -0.80089303   -2.65191480
 H   -1.55659562   +1.25709731   -3.76542894
 H   -1.84085363   +3.32081802   -2.41119953
 H   -1.22722808   +2.52002868   -0.96897574
 H   -0.14563359   +2.90979020   -2.30180270
 H   +0.48321549   +0.91871168   -0.33270939
 H   +0.32839135   -0.63275777   -2.59697146
 H   -2.03699116   +0.61114723   -0.08499110
22
 * E =  +1.811 kcal/mol ; (11) 184_072_061_173
 C   +0.00000000   +0.00000000   +0.00000000
 C   +0.00000000   +0.00000000   +1.49698088
 O   +1.23685267   +0.00000000   +1.98769227
 O   -0.98123102   -0.02071845   +2.19054069
 C   +1.32822042   -0.09978862   +3.39755600
 H   +2.38554673   -0.08853864   +3.62818996
 H   +0.82352603   +0.73671578   +3.87051894
 H   +0.87284521   -1.02605481   +3.73507447
 C   +0.44631979   -1.34559891   -0.55972443
 C   -0.46704680   -2.46934660   -0.15399737
 C   -0.38462827   -3.72755009   -0.61156247
 C   +0.70154704   -4.26845928   -1.46798444
 H   +0.67002075   +0.78130660   -0.35028390
 H   +0.46929948   -1.26932271   -1.64675864
 H   -1.33832309   -2.19484456   +0.42793224
 H   -1.14405879   -4.42958830   -0.29424148
 H   +1.28118355   -5.01649649   -0.92581264
 H   +0.29392979   -4.76707349   -2.34631175
 H   +1.38715754   -3.49652319   -1.80440332
 H   -1.00999822   +0.23237845   -0.32361941
 H   +0.36073959   -2.76011356   +1.65477481
 H   +1.46815933   -1.54270439   -0.23943296
22
 * E =  +1.874 kcal/mol ; (12) 178_038_183_198
 C   +0.00000000   +0.00000000   +0.00000000
 C   +0.00000000   +0.00000000   +1.49724806
 O   +1.23139372   +0.00000000   +2.00677933
 O   -0.98482685   +0.02645719   +2.18411203
 C   +1.30131497   +0.04207834   +3.42111382
 H   +2.35536307   +0.03102238   +3.66649499
 H   +0.83032426   +0.94521912   +3.79635244
 H   +0.79887890   -0.81889683   +3.85045308
 C   +1.09126478   -0.84269887   -0.63630244
 C   +1.08058796   -0.74827970   -2.13185070
 C   +1.66578645   -1.60685241   -2.98010707
 C   +2.30390138   -2.90099789   -2.62765256
 H   +0.11047997   +1.04033746   -0.31154154
 H   +2.05741880   -0.50419139   -0.26252062
 H   +0.70706073   +0.18120294   -2.54393539
 H   +1.63898086   -1.36140174   -4.03360632
 H   +2.33488965   -3.07478121   -1.55700684
 H   +1.77092773   -3.73179879   -3.09072509
 H   +3.32613019   -2.93978287   -3.00205151
 H   -0.98722020   -0.32062245   -0.31868991
 H   -0.83791426   -1.39772200   -2.36087298
 H   +0.98338248   -1.87731857   -0.31725888
22
 * E =  +1.881 kcal/mol ; (13) 178_291_296_187
 C   +0.00000000   +0.00000000   +0.00000000
 C   +0.00000000   +0.00000000   +1.49684079
 O   +1.23912732   +0.00000000   +1.98751621
 O   -0.97634218   +0.02100280   +2.19692188
 C   +1.33424809   +0.03643995   +3.40023012
 H   +2.39247988   +0.02976852   +3.62685637
 H   +0.86593208   +0.93567121   +3.78809956
 H   +0.84465544   -0.82931994   +3.83502534
 C   +0.50982928   +1.32154462   -0.56248782
 C   -0.37793621   +2.47992408   -0.20670446
 C   -0.24833916   +3.72609348   -0.68358751
 C   +0.69930514   +4.15963377   -1.74229943
 H   -1.01824460   -0.18556631   -0.32797031
 H   +1.51703881   +1.49811829   -0.18306434
 H   -1.07673332   +2.31962741   +0.60515949
 H   -0.91816700   +4.48355842   -0.29877883
 H   +0.16066416   +4.49525717   -2.62904060
 H   +1.29785338   +5.00430613   -1.40359777
 H   +1.37816268   +3.36694874   -2.04145340
 H   +0.63635379   -0.81233606   -0.34318016
 H   -1.91820708   +1.82724047   -1.36067911
 H   +0.59572196   +1.22669146   -1.64286441
22
 * E =  +2.040 kcal/mol ; (14) 176_258_068_178
 C   +0.00000000   +0.00000000   +0.00000000
 C   +0.00000000   +0.00000000   +1.49769096
 O   +1.23200257   +0.00000000   +2.00228959
 O   -0.98809045   +0.01968436   +2.18059348
 C   +1.30312666   +0.09290763   +3.41444507
 H   +2.35701874   +0.08249141   +3.66020211
 H   +0.83973176   +1.01606093   +3.74965530
 H   +0.79309140   -0.74705888   +3.87529426
 C   -0.30049240   +1.38950547   -0.55026702
 C   +0.79504335   +2.38136901   -0.27530188
 C   +0.79599965   +3.65641950   -0.69135780
 C   -0.33725495   +4.35244326   -1.35251803
 H   -0.77379918   -0.69147960   -0.32038586
 H   -0.44167508   +1.30095933   -1.62773904
 H   +1.70793002   +1.98435384   +0.15074736
 H   +1.67643477   +4.25186862   -0.48966426
 H   -0.73210211   +5.14005746   -0.70977004
 H   -0.01339122   +4.83478355   -2.27372272
 H   -1.15385759   +3.67841973   -1.59276035
 H   +0.96067013   -0.35208314   -0.36616937
 H   +0.30523487   +2.71781696   +1.65717901
 H   -1.24844296   +1.73357214   -0.13971884
22
 * E =  +2.692 kcal/mol ; (15) 179_052_174_283
 C   +0.00000000   +0.00000000   +0.00000000
 C   +0.00000000   +0.00000000   +1.49620348
 O   +1.23710955   +0.00000000   +1.99221544
 O   -0.97848369   +0.00624228   +2.19328490
 C   +1.32494246   +0.01756546   +3.40580627
 H   +2.38206014   +0.01404299   +3.63772128
 H   +0.84921273   +0.90863540   +3.80334052
 H   +0.83794366   -0.85655257   +3.82657077
 C   +0.85891198   -1.11340677   -0.59267337
 C   +0.77123232   -1.22707978   -2.08890327
 C   -0.25388570   -1.78718425   -2.75358945
 C   -1.53494799   -2.24878659   -2.15972108
 H   +0.37505310   +0.96478257   -0.33863311
 H   +1.89127363   -0.95416148   -0.29547530
 H   +1.67043879   -1.01063051   -2.64823881
 H   -0.16722523   -1.87128009   -3.82885732
 H   -1.49430536   -2.31449558   -1.07629316
 H   -2.34822731   -1.56953741   -2.41998953
 H   -1.81025194   -3.22728939   -2.54881744
 H   -1.03220134   -0.08018241   -0.32493458
 H   +0.45138514   +0.68762687   -2.56389691
 H   +0.55644465   -2.06310647   -0.14939271
22
 * E =  +2.791 kcal/mol ; (16) 180_300_171_281
 C   +0.00000000   +0.00000000   +0.00000000
 C   +0.00000000   +0.00000000   +1.49674744
 O   +1.24047951   +0.00000000   +1.98863202
 O   -0.97475072   -0.00276851   +2.19803145
 C   +1.33332957   -0.00289386   +3.40201833
 H   +2.39120593   -0.00266736   +3.63064700
 H   +0.85268382   +0.87847720   +3.81491018
 H   +0.85391064   -0.88686724   +3.81081234
 C   +0.69963878   +1.22680564   -0.58267421
 C   +0.91994461   +1.16242996   -2.06806656
 C   +1.91157221   +0.47101007   -2.65595033
 C   +2.84632440   -0.46266080   -1.97619014
 H   -1.03080790   -0.05641461   -0.33110510
 H   +0.11633252   +2.11289609   -0.34233624
 H   +0.36356467   +1.85942199   -2.67848500
 H   +2.01489143   +0.55557096   -3.72967336
 H   +2.62497230   -1.49567100   -2.24953333
 H   +3.87315473   -0.27373496   -2.28458853
 H   +2.79878586   -0.38822715   -0.89333279
 H   +0.51043784   -0.90069969   -0.33879043
 H   -0.62036878   +0.01565413   -2.60199937
 H   +1.66075548   +1.34281555   -0.08449062
22
 * E =  +8.257 kcal/mol ; (17) 358_168_285_104
 C   +0.00000000   +0.00000000   +0.00000000
 C   +0.00000000   +0.00000000   +1.50537601
 O   +1.18243645   +0.00000000   +2.13247809
 O   -0.99979151   +0.03623943   +2.16124506
 C   +2.39475110   -0.03862255   +1.41580594
 H   +3.17652529   +0.09345925   +2.15340822
 H   +2.53389480   -0.99743528   +0.92140061
 H   +2.45864283   +0.76381864   +0.68481955
 C   -1.37659010   -0.28717351   -0.57815956
 C   -1.73087760   -1.73678570   -0.45052452
 C   -2.57421347   -2.28915638   +0.43812527
 C   -3.50744408   -1.59257219   +1.35640558
 H   +0.72793742   -0.71711107   -0.37675124
 H   -2.10865022   +0.34267351   -0.08255804
 H   -1.09566708   -2.41174159   -1.01245733
 H   -2.62538045   -3.37089503   +0.44991862
 H   -3.29439339   -1.86552099   +2.38876237
 H   -3.43722575   -0.51377116   +1.29083229
 H   -4.53373993   -1.89630965   +1.14851571
 H   +0.35121883   +0.98229123   -0.32242921
 H   -2.89447898   -1.78690583   -2.04421388
 H   -1.36747017   -0.00965499   -1.63021289
22
 * E =  +8.282 kcal/mol ; (18) 000_180_186_209
 C   +0.00000000   +0.00000000   +0.00000000
 C   +0.00000000   +0.00000000   +1.50284463
 O   +1.18485562   +0.00000000   +2.12597489
 O   -0.99982472   +0.00115003   +2.16036683
 C   +2.39279439   +0.00384914   +1.40073777
 H   +3.18105626   +0.00742505   +2.14307044
 H   +2.49308703   -0.88551647   +0.78287445
 H   +2.48622327   +0.89195319   +0.78031197
 C   -1.40681132   +0.00788410   -0.55947459
 C   -1.44099686   -0.13017984   -2.04810341
 C   -2.38305360   +0.35340235   -2.87270685
 C   -3.50105103   +1.26474725   -2.51914283
 H   +0.54998797   -0.87374213   -0.35367635
 H   -1.95595788   -0.82093698   -0.11150823
 H   -0.72916305   -0.82921051   -2.47096143
 H   -2.30624133   +0.08652769   -3.91875481
 H   -3.41976688   +2.20181608   -3.07011674
 H   -4.45682628   +0.82240796   -2.79783070
 H   -3.53902807   +1.49676098   -1.46033509
 H   +0.55892303   +0.86345644   -0.36158829
 H   -0.01222490   +1.26814822   -2.47979478
 H   -1.91509720   +0.90869741   -0.22924318
22
 * E =  +8.318 kcal/mol ; (19) 356_168_297_228
 C   +0.00000000   +0.00000000   +0.00000000
 C   +0.00000000   +0.00000000   +1.50520930
 O   +1.18007498   +0.00000000   +2.13277716
 O   -1.00277168   +0.03828909   +2.15850480
 C   +2.38984158   -0.09365073   +1.41592495
 H   +3.17631114   +0.02333258   +2.15104515
 H   +2.49110606   -1.06571827   +0.93882726
 H   +2.48070971   +0.69383980   +0.67154297
 C   -1.37749779   -0.28051903   -0.57280722
 C   -1.92687965   -1.62964734   -0.23116155
 C   -2.48662490   -2.50204774   -1.08614478
 C   -2.52930054   -2.42826362   -2.56935623
 H   +0.72102758   -0.72127745   -0.37765330
 H   -2.06719551   +0.46348695   -0.17414620
 H   -2.04690683   -1.81560421   +0.82708959
 H   -2.92592384   -3.39211840   -0.65423535
 H   -3.55816115   -2.46399798   -2.92600991
 H   -2.07050649   -1.52921026   -2.96687780
 H   -2.01947283   -3.28659882   -3.00728320
 H   +0.34555846   +0.98466316   -0.32209096
 H   -0.22004004   -2.67467849   +0.07155744
 H   -1.33636290   -0.13788287   -1.64873702
22
 * E =  +8.371 kcal/mol ; (20) 007_199_075_241
 C   +0.00000000   +0.00000000   +0.00000000
 C   +0.00000000   +0.00000000   +1.50834779
 O   +1.17330341   +0.00000000   +2.14651779
 O   -1.00820768   -0.06445944   +2.15171355
 C   +2.38667390   +0.15292481   +1.44727292
 H   +3.16810317   +0.04931729   +2.18983586
 H   +2.51508971   -0.61495546   +0.68783024
 H   +2.45520618   +1.13944650   +0.99383489
 C   -1.33756380   +0.47193047   -0.54183477
 C   -1.55251869   +1.94995602   -0.41853710
 C   -2.52928884   +2.55707073   +0.27952617
 C   -3.47164779   +1.93477229   +1.24144788
 H   +0.19883514   -1.02667663   -0.31534305
 H   -1.38825157   +0.21339400   -1.59939789
 H   -0.99172454   +2.56010276   -1.11609883
 H   -2.60701191   +3.63187989   +0.17235423
 H   -3.37395747   +2.41205686   +2.21596269
 H   -4.50262291   +2.08460740   +0.92048602
 H   -3.29093533   +0.87604159   +1.38291830
 H   +0.80685633   +0.61061508   -0.39601119
 H   -0.06652572   +2.48094125   +0.77362306
 H   -2.12807094   -0.07454974   -0.03829861
22
 * E =  +8.424 kcal/mol ; (21) 002_187_066_082
 C   +0.00000000   +0.00000000   +0.00000000
 C   +0.00000000   +0.00000000   +1.50526098
 O   +1.18353215   +0.00000000   +2.13029303
 O   -1.00028763   -0.02338343   +2.16128911
 C   +2.39243305   +0.04898920   +1.40874120
 H   +3.17933648   -0.04898093   +2.14613258
 H   +2.47153157   -0.76843434   +0.69605910
 H   +2.50878425   +0.99875825   +0.89155364
 C   -1.39988541   +0.16980455   -0.56707143
 C   -1.96916314   +1.52232455   -0.25627814
 C   -1.70767101   +2.64651240   -0.94005258
 C   -0.94577332   +2.75382431   -2.21236582
 H   +0.43625973   -0.94345375   -0.33382708
 H   -1.36130725   +0.00515175   -1.64118640
 H   -2.48487838   +1.60749933   +0.68904389
 H   -2.12466727   +3.57001344   -0.56008572
 H   -1.59250159   +3.09341103   -3.02196873
 H   -0.14754836   +3.48999843   -2.12451963
 H   -0.50043083   +1.81113515   -2.51635370
 H   +0.65648032   +0.78810731   -0.36770854
 H   -3.78813113   +1.05645076   -1.02269058
 H   -2.04547294   -0.59648213   -0.14752966
22
 * E =  +8.485 kcal/mol ; (22) 001_182_178_085
 C   +0.00000000   +0.00000000   +0.00000000
 C   +0.00000000   +0.00000000   +1.50406161
 O   +1.18520468   +0.00000000   +2.12807645
 O   -0.99988114   -0.00686336   +2.16032365
 C   +2.39323160   +0.02539106   +1.40406172
 H   +3.18138258   -0.01208548   +2.14560529
 H   +2.48654608   -0.83439662   +0.74480890
 H   +2.49480491   +0.94131218   +0.82637165
 C   -1.40886468   +0.03727624   -0.56493247
 C   -1.38528435   +0.07458076   -2.06240180
 C   -1.29841932   -0.99341237   -2.87081254
 C   -1.38289898   -2.41981446   -2.46273154
 H   +0.52720299   -0.88666123   -0.35512917
 H   -1.96422260   -0.81949879   -0.19469654
 H   -1.25281530   +1.05037344   -2.51209663
 H   -1.20812939   -0.80981624   -3.93357661
 H   -2.27270613   -2.88762874   -2.88477631
 H   -0.52893722   -2.98060409   -2.84063417
 H   -1.41962327   -2.54709479   -1.38529086
 H   +0.58088927   +0.84979853   -0.36025362
 H   -3.35026655   +0.47888941   -2.21780377
 H   -1.92390880   +0.91093158   -0.17510490
22
 * E =  +9.342 kcal/mol ; (23) 358_177_173_281
 C   +0.00000000   +0.00000000   +0.00000000
 C   +0.00000000   +0.00000000   +1.50347006
 O   +1.18525009   +0.00000000   +2.12593001
 O   -0.99943819   +0.00696950   +2.16174380
 C   +2.39256139   -0.03244710   +1.39988020
 H   +3.18155885   +0.01981593   +2.13960685
 H   +2.49561354   -0.95706829   +0.83674409
 H   +2.48149637   +0.81651077   +0.72631528
 C   -1.40830264   -0.07386934   -0.56103386
 C   -1.48400420   +0.09219660   -2.05248868
 C   -1.42653004   +1.27294059   -2.69251516
 C   -1.12600264   +2.58846646   -2.07112549
 H   +0.60221510   -0.83031053   -0.36661141
 H   -1.85105180   -1.02281876   -0.27133025
 H   -1.78545095   -0.77195590   -2.62763760
 H   -1.56390956   +1.27048597   -3.76571960
 H   -0.12967088   +2.93177148   -2.35490037
 H   -1.82512855   +3.34802973   -2.41609063
 H   -1.17272033   +2.55714420   -0.98618211
 H   +0.50408242   +0.90056901   -0.35442718
 H   +0.30819821   -0.61556867   -2.59168410
 H   -2.01094316   +0.68889946   -0.07174472
22
 * E = +10.368 kcal/mol ; (24) 004_092_173_082
 C   +0.00000000   +0.00000000   +0.00000000
 C   +0.00000000   +0.00000000   +1.50475571
 O   +1.17052175   +0.00000000   +2.15593549
 O   -1.01229864   -0.04690514   +2.14089244
 C   +2.39720524   +0.08994649   +1.47050938
 H   +3.16525958   -0.03295610   +2.22413740
 H   +2.50474196   -0.69704401   +0.72748476
 H   +2.51787611   +1.06186802   +0.99747583
 C   -0.04969194   -1.43197567   -0.54121449
 C   -0.23261713   -1.43310661   -2.02862184
 C   +0.74165272   -1.25985662   -2.93400852
 C   +2.20050855   -1.19784068   -2.65886587
 H   +0.85324977   +0.52454557   -0.42234599
 H   +0.85339831   -1.97230415   -0.26232179
 H   -1.25554393   -1.39623415   -2.37889408
 H   +0.45296957   -1.20099844   -3.97510326
 H   +2.71444763   -2.05162040   -3.10108987
 H   +2.63913931   -0.30554228   -3.10322888
 H   +2.42534651   -1.18800948   -1.59628683
 H   -0.89895598   +0.52820962   -0.30240646
 H   -0.47400310   -3.43949632   -2.11204575
 H   -0.87838349   -1.95294094   -0.06868743
22
 * E = +10.443 kcal/mol ; (25) 346_279_293_088
 C   +0.00000000   +0.00000000   +0.00000000
 C   +0.00000000   +0.00000000   +1.50273148
 O   +1.18323378   +0.00000000   +2.13835333
 O   -0.99955023   +0.06179661   +2.15661687
 C   +2.38652191   -0.28830913   +1.46436959
 H   +3.17014780   -0.18388992   +2.20470631
 H   +2.39186258   -1.30887822   +1.08777096
 H   +2.57784022   +0.40343294   +0.64798450
 C   +0.23573012   +1.40974470   -0.56328025
 C   -0.90514559   +2.33609394   -0.27515523
 C   -1.04697981   +3.09037824   +0.82421360
 C   -0.05711697   +3.27755290   +1.91462426
 H   -0.97709227   -0.35859418   -0.30733979
 H   +1.16587680   +1.81943506   -0.17489235
 H   -1.76046669   +2.24214952   -0.93100055
 H   -1.97709356   +3.63206340   +0.93409442
 H   +0.10762176   +4.33629938   +2.10946712
 H   -0.42997591   +2.83151435   +2.83614628
 H   +0.90356995   +2.81888237   +1.70024987
 H   +0.74913755   -0.68206934   -0.39506572
 H   -0.25773964   +3.72621514   -1.60359336
 H   +0.36671050   +1.32215527   -1.63931591
22
 * E = +10.795 kcal/mol ; (26) 006_091_186_213
 C   +0.00000000   +0.00000000   +0.00000000
 C   +0.00000000   +0.00000000   +1.50353564
 O   +1.17322872   +0.00000000   +2.15145731
 O   -1.00963380   -0.05444628   +2.14336805
 C   +2.39721007   +0.12187094   +1.46487486
 H   +3.16839682   -0.00380159   +2.21487450
 H   +2.51598350   -0.64675885   +0.70467218
 H   +2.50144435   +1.10551278   +1.01257978
 C   -0.01540582   -1.43609304   -0.52053164
 C   +0.12570614   -1.52878466   -2.00699035
 C   -0.43376758   -2.45258624   -2.80472607
 C   -1.45740640   -3.46270020   -2.43490112
 H   +0.84634696   +0.54220079   -0.41446466
 H   +0.81212916   -1.99068259   -0.07032307
 H   +0.89791522   -0.90389450   -2.43924753
 H   -0.14672021   -2.43663914   -3.84814443
 H   -2.36691858   -3.31244307   -3.01634886
 H   -1.10408573   -4.46725542   -2.66487643
 H   -1.72259632   -3.43547223   -1.38366934
 H   -0.90560002   +0.50842103   -0.31338653
 H   -1.07831885   +0.01540262   -2.51029081
 H   -0.92561842   -1.91723139   -0.17517306
22
 * E = +11.485 kcal/mol ; (27) 005_086_056_169
 C   +0.00000000   +0.00000000   +0.00000000
 C   +0.00000000   +0.00000000   +1.50673664
 O   +1.16777715   +0.00000000   +2.15860077
 O   -1.01482899   -0.01919216   +2.14239500
 C   +2.39580006   +0.10400845   +1.47715915
 H   +3.16219841   -0.02700356   +2.23103034
 H   +2.50956698   -0.66895029   +0.72208080
 H   +2.51308874   +1.08518166   +1.02206785
 C   +0.08836709   -1.40326818   -0.59906890
 C   -1.00778403   -2.31602983   -0.12138352
 C   -1.27611781   -3.51917632   -0.65016954
 C   -0.45705409   -4.22430107   -1.66916923
 H   +0.80036475   +0.61853337   -0.39778631
 H   +0.03001206   -1.29715355   -1.68222141
 H   -1.71102550   -1.89662081   +0.58580354
 H   -2.13355512   -4.05543891   -0.26646090
 H   +0.33600760   -3.59991803   -2.07023462
 H   +0.00512525   -5.11445574   -1.24053388
 H   -1.07406116   -4.56355415   -2.49992784
 H   -0.94469838   +0.45063650   -0.28867595
 H   -0.02939949   -2.87401782   +1.52121272
 H   +1.06269757   -1.84413172   -0.39260473
22
 * E = +14.016 kcal/mol ; (28) 358_277_313_310
 C   +0.00000000   +0.00000000   +0.00000000
 C   +0.00000000   +0.00000000   +1.50775988
 O   +1.16574287   +0.00000000   +2.16347923
 O   -1.01445780   -0.01860880   +2.14380499
 C   +2.39840886   -0.04189732   +1.48554178
 H   +3.15847816   +0.04838543   +2.25173642
 H   +2.53436833   -0.98771754   +0.96543029
 H   +2.50519675   +0.78352505   +0.78757576
 C   +0.16397937   +1.37290103   -0.66557371
 C   -0.68385470   +2.50795770   -0.16612744
 C   -2.01206832   +2.50738412   +0.01747957
 C   -2.94199866   +1.35734155   -0.14957109
 H   -0.95184946   -0.43732119   -0.27531651
 H   +1.20439875   +1.68246796   -0.60551965
 H   -0.18354297   +3.46485101   -0.11593909
 H   -2.45464640   +3.44092870   +0.33782713
 H   -3.96155427   +1.70566070   -0.28603833
 H   -2.68196335   +0.75000732   -1.01484714
 H   -2.92035232   +0.71284323   +0.72883832
 H   +0.77883646   -0.65772573   -0.38119003
 H   +0.12110304   +2.59308932   +1.71468094
 H   -0.03362332   +1.22561370   -1.72953108
