22
 * E =  +0.000 kcal/mol ; (1) 178_164_179_211
 C   +0.00000000   +0.00000000   +0.00000000
 O   +0.00000000   +0.00000000   +1.41716397
 C   +1.20189483   +0.00000000   +1.98648256
 C   +1.10473113   +0.04391527   +3.48057279
 C   +2.39751078   -0.33560314   +4.15093849
 C   +2.37685840   -0.29147271   +5.61535241
 C   +3.40247867   -0.00883536   +6.42207216
 C   +4.79175796   +0.34238869   +6.02464149
 O   +2.22542639   -0.00843980   +1.35874107
 H   +5.08800507   +1.29459759   +6.46267174
 H   +0.50837540   -0.88158013   -0.37728480
 H   +5.49362795   -0.40365135   +6.39602165
 H   +4.92013827   +0.40958265   +4.94959042
 H   +3.21563442   -0.03979456   +7.48789278
 H   +1.43233637   -0.54543962   +6.08142946
 H   +2.57665941   -1.51435088   +3.81007911
 H   +3.24758337   +0.15255530   +3.68791828
 H   +0.81701470   +1.06242663   +3.74988448
 H   +0.28195336   -0.59339097   +3.79865305
 H   -1.04090136   -0.00355007   -0.29585632
 H   +0.50235113   +0.88463785   -0.37870393
 H   +2.64822851   -2.48746609   +3.43615173
22
 * E =  +0.169 kcal/mol ; (2) 183_204_080_217
 C   +0.00000000   +0.00000000   +0.00000000
 O   +0.00000000   +0.00000000   +1.41742759
 C   +1.20222223   +0.00000000   +1.98598142
 C   +1.11022717   -0.06493811   +3.48251971
 C   +2.33612764   +0.50480443   +4.14678813
 C   +2.38695255   +1.96545565   +4.23611250
 C   +3.46542423   +2.74175684   +4.10464552
 C   +4.85640817   +2.31230226   +3.80420498
 O   +2.22479497   +0.01701280   +1.35684032
 H   +4.93631004   +1.24948501   +3.60425138
 H   +0.50896489   -0.88099102   -0.37824278
 H   +5.23920843   +2.84569919   +2.93559423
 H   +5.51888596   +2.55033694   +4.63606113
 H   +3.32161283   +3.80825932   +4.22279300
 H   +1.44438990   +2.45209708   +4.45775086
 H   +2.28696521   +0.05571882   +5.30589269
 H   +3.24239062   +0.05061324   +3.76194189
 H   +0.20227515   +0.43833724   +3.80541491
 H   +0.98962310   -1.11819543   +3.74037399
 H   -1.04089748   -0.00383540   -0.29585655
 H   +0.50224206   +0.88508073   -0.37725241
 H   +2.20876637   -0.43425917   +6.21629906
22
 * E =  +0.473 kcal/mol ; (3) 180_053_069_213
 C   +0.00000000   +0.00000000   +0.00000000
 O   +0.00000000   +0.00000000   +1.41664390
 C   +1.20339977   +0.00000000   +1.98628327
 C   +1.10856516   +0.00389047   +3.48362209
 C   +0.23282890   -1.10796428   +4.01433493
 C   +0.77049688   -2.46188052   +3.85162749
 C   +0.07384860   -3.58245252   +3.64665497
 C   -1.40122381   -3.71950569   +3.51850322
 O   +2.22476544   +0.00763879   +1.35564164
 H   -1.65956231   -4.22769630   +2.59057614
 H   +0.50464992   -0.88390030   -0.37701438
 H   -1.79904823   -4.32927578   +4.32918573
 H   -1.91875457   -2.76628890   +3.53643022
 H   +0.63608830   -4.50379625   +3.56471860
 H   +1.84730901   -2.54903944   +3.93042212
 H   +0.15563815   -0.86908904   +5.22548589
 H   -0.79772163   -0.99654361   +3.69534019
 H   +2.12081796   -0.07341870   +3.86813006
 H   +0.70417662   +0.96814882   +3.78925514
 H   -1.04075155   +0.00096650   -0.29676946
 H   +0.50651374   +0.88227233   -0.37860382
 H   +0.07441589   -0.54655069   +6.22033388
22
 * E =  +0.675 kcal/mol ; (4) 179_176_299_214
 C   +0.00000000   +0.00000000   +0.00000000
 O   +0.00000000   +0.00000000   +1.41697953
 C   +1.20290027   +0.00000000   +1.98681768
 C   +1.09101083   +0.02959664   +3.48191244
 C   +2.41170075   -0.07348198   +4.19952548
 C   +3.19547997   -1.29015849   +3.97650160
 C   +3.97791212   -1.90524375   +4.86797189
 C   +4.22557365   -1.51763297   +6.28269441
 O   +2.22487567   -0.00969739   +1.35766461
 H   +4.00744682   -2.34768348   +6.95346498
 H   +0.50006504   -0.88597576   -0.37848510
 H   +5.27525926   -1.26521317   +6.43034931
 H   +3.63558143   -0.66421453   +6.60046599
 H   +4.50610675   -2.78802265   +4.53105112
 H   +3.15949825   -1.69388430   +2.97449897
 H   +3.06967303   +0.89897894   +3.76814365
 H   +2.30235238   +0.18978819   +5.24633560
 H   +0.58664230   +0.95987871   +3.74160867
 H   +0.41292446   -0.76944381   +3.78253520
 H   -1.04086177   +0.00581519   -0.29601367
 H   +0.51059524   +0.87996292   -0.37834568
 H   +3.49378159   +1.77761666   +3.44903516
22
 * E =  +0.768 kcal/mol ; (5) 181_327_189_212
 C   +0.00000000   +0.00000000   +0.00000000
 O   +0.00000000   +0.00000000   +1.41709433
 C   +1.20266995   +0.00000000   +1.98604769
 C   +1.12647984   -0.02426719   +3.48326382
 C   -0.05715217   +0.70108091   +4.07397258
 C   -0.02719045   +0.84637793   +5.53179863
 C   -1.07650594   +0.86979798   +6.35716461
 C   -2.51313190   +0.73754703   +5.99660490
 O   +2.22393657   -0.01407277   +1.35505076
 H   -2.97653917   -0.07413411   +6.55576542
 H   +0.49723377   -0.88778892   -0.37787164
 H   -3.05586594   +1.64557720   +6.25745220
 H   -2.66941485   +0.55215714   +4.93918061
 H   -0.87152162   +1.00416880   +7.41151034
 H   +0.95490955   +0.97562148   +5.97023851
 H   +0.00012562   +1.83555322   +3.57936857
 H   -0.99780166   +0.33932680   +3.67495845
 H   +1.09969492   -1.07538545   +3.77861186
 H   +2.06589770   +0.37725369   +3.85290393
 H   -1.04074194   +0.01081496   -0.29634092
 H   +0.51445252   +0.87845049   -0.37602311
 H   +0.09793762   +2.73719240   +3.05253268
22
 * E =  +1.849 kcal/mol ; (6) 182_193_075_062
 C   +0.00000000   +0.00000000   +0.00000000
 O   +0.00000000   +0.00000000   +1.41739581
 C   +1.20228047   +0.00000000   +1.98612042
 C   +1.10197395   -0.04218940   +3.48344291
 C   +2.41936310   +0.28003421   +4.13752495
 C   +2.84258004   +1.69037352   +4.14770393
 C   +2.20261392   +2.70072277   +4.73924832
 C   +0.95747754   +2.61308077   +5.55131799
 O   +2.22489308   +0.01115230   +1.35704065
 H   +1.06348022   +3.18640413   +6.47019184
 H   +0.50245880   -0.88461252   -0.37851018
 H   +0.10633531   +3.03654343   +5.01629004
 H   +0.71208757   +1.59156444   +5.82672689
 H   +2.63226810   +3.68879806   +4.63823551
 H   +3.76956215   +1.91104082   +3.63617195
 H   +2.27392702   -0.11073343   +5.34479577
 H   +3.20220489   -0.38208153   +3.78294054
 H   +0.31179316   +0.63773683   +3.78953657
 H   +0.76837928   -1.04554595   +3.75254707
 H   -1.04090971   +0.00331495   -0.29588629
 H   +0.50832096   +0.88154803   -0.37740674
 H   +2.10941423   -0.48394792   +6.24577294
22
 * E =  +1.943 kcal/mol ; (7) 178_164_176_061
 C   +0.00000000   +0.00000000   +0.00000000
 O   +0.00000000   +0.00000000   +1.41724471
 C   +1.20220536   +0.00000000   +1.98639045
 C   +1.10432343   +0.04866226   +3.48092784
 C   +2.39538856   -0.34156032   +4.15073467
 C   +2.44629523   -0.24720605   +5.62016764
 C   +1.68255022   -0.91450100   +6.48665764
 C   +0.64625302   -1.93287679   +6.16044617
 O   +2.22539468   -0.01204880   +1.35831028
 H   +0.73442077   -2.78906726   +6.82591726
 H   +0.50647964   -0.88264936   -0.37732630
 H   -0.35912810   -1.53249481   +6.29713440
 H   +0.73147772   -2.29770325   +5.14113518
 H   +1.83711306   -0.71744189   +7.53950539
 H   +3.19930661   +0.41496659   +6.02770770
 H   +2.56276472   -1.55635676   +3.82158046
 H   +3.24322107   +0.12576762   +3.66177649
 H   +0.83894441   +1.07390136   +3.74850671
 H   +0.26525460   -0.56334986   +3.80051133
 H   -1.04090817   -0.00124029   -0.29586643
 H   +0.50435736   +0.88349830   -0.37867119
 H   +2.61618948   -2.50247011   +3.50561605
22
 * E =  +2.615 kcal/mol ; (8) 181_324_189_062
 C   +0.00000000   +0.00000000   +0.00000000
 O   +0.00000000   +0.00000000   +1.41709996
 C   +1.20230576   +0.00000000   +1.98640581
 C   +1.12360944   -0.01787865   +3.48387735
 C   -0.02497409   +0.77269416   +4.06457364
 C   -0.03504104   +0.95079810   +5.52720172
 C   +0.89070985   +1.57955035   +6.25353220
 C   +2.10419750   +2.27446866   +5.74276962
 O   +2.22423861   -0.01504617   +1.35621746
 H   +2.21142574   +3.24628091   +6.22031253
 H   +0.49515961   -0.88889768   -0.37801746
 H   +3.00867770   +1.71109526   +5.97531492
 H   +2.07167106   +2.43524197   +4.66938482
 H   +0.74412869   +1.61041528   +7.32535078
 H   -0.89351984   +0.55038660   +6.05083572
 H   +0.06662465   +1.91660272   +3.52262994
 H   -0.97766338   +0.43252260   +3.67379565
 H   +1.02467033   -1.06402148   +3.78249171
 H   +2.08419938   +0.31800924   +3.85864641
 H   -1.04072129   +0.01305918   -0.29626885
 H   +0.51626941   +0.87735161   -0.37611140
 H   +0.18837209   +2.77348802   +3.01911166
22
 * E =  +2.667 kcal/mol ; (9) 182_059_049_049
 C   +0.00000000   +0.00000000   +0.00000000
 O   +0.00000000   +0.00000000   +1.41660869
 C   +1.20213611   +0.00000000   +1.98703059
 C   +1.10786344   -0.03776370   +3.48256528
 C   +0.36139197   -1.26746192   +3.96503501
 C   +0.75905170   -2.58026203   +3.42738607
 C   +1.99871877   -3.06823245   +3.33822620
 C   +3.25177120   -2.40878490   +3.80376458
 O   +2.22541712   +0.02134751   +1.35856696
 H   +4.01454669   -3.14896913   +4.02781710
 H   +0.51402050   -0.87877447   -0.37648256
 H   +3.65308476   -1.74490986   +3.03699352
 H   +3.08651681   -1.82014199   +4.70353569
 H   +2.10970788   -4.04580545   +2.88840879
 H   -0.05029844   -3.21210262   +3.08753287
 H   +0.55992210   -1.26664498   +5.19925236
 H   -0.71175972   -1.12139488   +3.90480257
 H   +2.12129780   +0.00390336   +3.86235419
 H   +0.58496717   +0.85476485   +3.82099244
 H   -1.04068551   -0.00972836   -0.29679005
 H   +0.49705381   +0.88758588   -0.37874808
 H   +0.76317087   -1.16632943   +6.20252106
22
 * E =  +8.257 kcal/mol ; (10) 357_172_178_212
 C   +0.00000000   +0.00000000   +0.00000000
 O   +0.00000000   +0.00000000   +1.40879378
 C   +1.14234147   +0.00000000   +2.10562680
 C   +2.43316032   -0.07135333   +1.33367263
 C   +3.63096734   +0.12303524   +2.22384069
 C   +4.92821824   +0.01644337   +1.55168296
 C   +6.06922964   -0.43059070   +2.08176431
 C   +6.28354571   -0.93948802   +3.46239860
 O   +1.09444747   +0.02797895   +3.29987966
 H   +6.71556548   -1.93905372   +3.44063444
 H   +0.55687234   -0.84171577   -0.40485014
 H   +6.99135660   -0.30538235   +3.99527594
 H   +5.37040292   -0.97770708   +4.04656612
 H   +6.94557411   -0.42197285   +1.44631237
 H   +4.96090261   +0.36901278   +0.52748421
 H   +3.50926253   +1.29102367   +2.63237771
 H   +3.53943056   -0.43648983   +3.14711910
 H   +2.47759603   -1.04711645   +0.84329083
 H   +2.43027115   +0.66473051   +0.52988093
 H   -1.03819731   -0.09039021   -0.29395167
 H   +0.39984518   +0.93022242   -0.39746867
 H   +3.30824681   +2.26600451   +2.92564528
22
 * E =  +8.497 kcal/mol ; (11) 002_189_081_230
 C   +0.00000000   +0.00000000   +0.00000000
 O   +0.00000000   +0.00000000   +1.40922436
 C   +1.14201158   +0.00000000   +2.10565437
 C   +2.43797041   +0.04877105   +1.33355633
 C   +3.61331626   -0.17927925   +2.24543406
 C   +3.90044652   -1.57555250   +2.57656857
 C   +4.08982189   -2.08209713   +3.79684191
 C   +3.99370437   -1.36123155   +5.09345571
 O   +1.09354953   -0.00995119   +3.30059703
 H   +3.54422860   -0.37956273   +4.99159585
 H   +0.38589390   -0.93614487   -0.39721891
 H   +3.38293640   -1.92973532   +5.79194669
 H   +4.97656718   -1.25019121   +5.55166203
 H   +4.32017053   -3.13806336   +3.86097291
 H   +3.97428225   -2.25170089   +1.73256796
 H   +4.59602645   +0.26410106   +1.58783041
 H   +3.58999059   +0.48591182   +3.10034559
 H   +2.42455178   -0.68582046   +0.52959994
 H   +2.50418712   +1.02700320   +0.85278669
 H   -1.03672361   +0.10602578   -0.29387545
 H   +0.56979288   +0.83296660   -0.40456079
 H   +5.30482477   +0.70892837   +1.02181114
22
 * E =  +8.508 kcal/mol ; (12) 002_190_082_222
 C   +0.00000000   +0.00000000   +0.00000000
 O   +0.00000000   +0.00000000   +1.40914617
 C   +1.14222168   +0.00000000   +2.10638544
 C   +2.43692000   +0.05422799   +1.33331560
 C   +3.62172843   -0.18427119   +2.23121385
 C   +3.92288962   -1.58603549   +2.52448452
 C   +4.27578353   -2.10144807   +3.70422221
 C   +4.39967518   -1.38751336   +5.00161270
 O   +1.09316662   -0.01145893   +3.30086257
 H   +3.80629085   -1.88875727   +5.76430455
 H   +0.38305942   -0.93725080   -0.39745463
 H   +5.43253422   -1.39671948   +5.34910697
 H   +4.06688288   -0.35695988   +4.94953934
 H   +4.48460501   -3.16334986   +3.73371163
 H   +3.86942655   -2.26177690   +1.67866002
 H   +4.58379661   +0.28320373   +1.58597586
 H   +3.59342951   +0.45719574   +3.10406258
 H   +2.42011175   -0.66866559   +0.51901084
 H   +2.50127700   +1.03840687   +0.86454368
 H   -1.03649562   +0.10878363   -0.29380233
 H   +0.57180503   +0.83140344   -0.40496000
 H   +5.29129770   +0.77176611   +1.01824072
22
 * E =  +9.008 kcal/mol ; (13) 001_177_299_215
 C   +0.00000000   +0.00000000   +0.00000000
 O   +0.00000000   +0.00000000   +1.40851983
 C   +1.13920518   +0.00000000   +2.11212033
 C   +2.43159405   +0.02166567   +1.33779122
 C   +3.65627012   +0.09743092   +2.21377961
 C   +3.79081227   +1.27829087   +3.06845825
 C   +4.93245555   +1.88995586   +3.39774290
 C   +6.31301387   +1.53535426   +2.97193174
 O   +1.08103405   -0.02380521   +3.30565529
 H   +6.80893430   +2.39312381   +2.51940104
 H   +0.52132081   -0.86503039   -0.40319256
 H   +6.91460394   +1.24665514   +3.83337214
 H   +6.34377867   +0.71547024   +2.26176895
 H   +4.85795311   +2.74202996   +4.06116370
 H   +2.87388516   +1.65013631   +3.50284242
 H   +3.56741491   -0.91555481   +2.94808099
 H   +4.54928048   -0.13083027   +1.64131210
 H   +2.47058823   -0.87970091   +0.72487631
 H   +2.41350403   +0.85846568   +0.63741822
 H   -1.04113750   -0.04903802   -0.29345958
 H   +0.43711780   +0.91147558   -0.40149059
 H   +3.48094223   -1.81700268   +3.41910796
22
 * E =  +9.911 kcal/mol ; (14) 009_086_062_206
 C   +0.00000000   +0.00000000   +0.00000000
 O   +0.00000000   +0.00000000   +1.40875512
 C   +1.14014895   +0.00000000   +2.11077519
 C   +2.44342922   +0.19726779   +1.37914391
 C   +2.75119607   +1.67334834   +1.20239860
 C   +2.91216165   +2.43299406   +2.44765850
 C   +2.69717457   +3.73942255   +2.61310746
 C   +2.23894758   +4.71805522   +1.59170714
 O   +1.08745699   -0.10878397   +3.30073416
 H   +2.04061834   +4.26503707   +0.62571814
 H   +0.41108199   -0.92633382   -0.39497438
 H   +1.33203685   +5.22180301   +1.92330273
 H   +2.99017274   +5.49304548   +1.44340031
 H   +2.87127286   +4.14486556   +3.60116415
 H   +3.24941374   +1.86313860   +3.30334944
 H   +3.82303537   +1.66958829   +0.60250642
 H   +2.09958283   +2.15698830   +0.48016498
 H   +3.20680097   -0.25733022   +2.00316661
 H   +2.45341292   -0.30385282   +0.41508784
 H   -1.03959438   +0.07629544   -0.29370102
 H   +0.54462025   +0.84728042   -0.40849557
 H   +4.70572963   +1.56917468   +0.01511107
22
 * E = +10.041 kcal/mol ; (15) 002_186_076_063
 C   +0.00000000   +0.00000000   +0.00000000
 O   +0.00000000   +0.00000000   +1.40907104
 C   +1.14242971   +0.00000000   +2.10540720
 C   +2.43535709   +0.05132884   +1.32866769
 C   +3.61976793   -0.10727261   +2.24443049
 C   +3.90968868   -1.46373942   +2.73795842
 C   +4.25523176   -2.51435503   +1.99227581
 C   +4.46819123   -2.52959783   +0.51840891
 O   +1.09507419   -0.02118721   +3.29994064
 H   +5.40427638   -3.02900348   +0.27571858
 H   +0.40591437   -0.92742140   -0.39775920
 H   +3.67935830   -3.08723894   +0.01132619
 H   +4.50955402   -1.53086353   +0.09334206
 H   +4.41489444   -3.45550323   +2.50176712
 H   +3.84192290   -1.60196239   +3.80813843
 H   +4.61294518   +0.29821581   +1.54274226
 H   +3.59602833   +0.62695378   +3.04220735
 H   +2.42692061   -0.72053136   +0.56191108
 H   +2.47968947   +1.00807939   +0.80423445
 H   -1.03877056   +0.08378924   -0.29386176
 H   +0.55143369   +0.84523125   -0.40462565
 H   +5.31399936   +0.67929004   +0.96623424
22
 * E = +10.216 kcal/mol ; (16) 357_173_175_062
 C   +0.00000000   +0.00000000   +0.00000000
 O   +0.00000000   +0.00000000   +1.40873883
 C   +1.14242457   +0.00000000   +2.10594584
 C   +2.43315813   -0.06008016   +1.33203937
 C   +3.63155126   +0.10540803   +2.22857952
 C   +4.95821681   -0.03802618   +1.60416781
 C   +5.46566041   +0.71797170   +0.62925665
 C   +4.82208069   +1.90085459   -0.00691603
 O   +1.09414741   +0.02225424   +3.30018408
 H   +5.53904917   +2.71278468   -0.10855275
 H   +0.55809941   -0.84099350   -0.40464219
 H   +4.47011063   +1.66813951   -1.01300625
 H   +3.98295830   +2.27550739   +0.57210858
 H   +6.45579404   +0.46868953   +0.27072157
 H   +5.58705214   -0.82406311   +2.00209199
 H   +3.52260680   +1.29294226   +2.67604441
 H   +3.51850431   -0.46974402   +3.14039799
 H   +2.47937539   -1.02718276   +0.82476663
 H   +2.42770551   +0.68311415   +0.53688232
 H   -1.03805395   -0.09142307   -0.29412793
 H   +0.39917400   +0.93049558   -0.39768151
 H   +3.36476944   +2.22614952   +2.97231909
22
 * E = +10.336 kcal/mol ; (17) 356_261_300_207
 C   +0.00000000   +0.00000000   +0.00000000
 O   +0.00000000   +0.00000000   +1.41037957
 C   +1.12834344   +0.00000000   +2.12461777
 C   +2.45426323   -0.09985662   +1.41316798
 C   +3.01728680   -1.51325332   +1.43116009
 C   +3.28450694   -2.09528789   +2.75107180
 C   +4.19625031   -3.03285568   +3.02050269
 C   +5.13223420   -3.68871704   +2.06893275
 O   +1.05348230   +0.05682095   +3.31887040
 H   +6.16322252   -3.57357393   +2.40095776
 H   +0.54189708   -0.85117476   -0.40315498
 H   +4.93782609   -4.75982517   +2.02332141
 H   +5.05645161   -3.29934898   +1.05879068
 H   +4.26788738   -3.36667732   +4.04751802
 H   +2.66335771   -1.73790283   +3.56029738
 H   +2.17373086   -2.22753345   +0.86498517
 H   +3.85159826   -1.59547678   +0.74130822
 H   +2.39754899   +0.25593584   +0.38977456
 H   +3.13314615   +0.55463762   +1.95552076
 H   -1.04065950   -0.07556328   -0.29005609
 H   +0.40980924   +0.92744957   -0.39394488
 H   +1.48182439   -2.80187717   +0.32256901
22
 * E = +10.662 kcal/mol ; (18) 004_098_312_218
 C   +0.00000000   +0.00000000   +0.00000000
 O   +0.00000000   +0.00000000   +1.41086870
 C   +1.13573070   +0.00000000   +2.11942837
 C   +2.45296031   +0.10304119   +1.39309626
 C   +2.97518198   +1.52891691   +1.38193077
 C   +2.04085604   +2.58755001   +0.99223208
 C   +2.31649730   +3.67567802   +0.26732824
 C   +3.61559578   +4.04943609   -0.35259466
 O   +1.07172221   -0.04432672   +3.31274699
 H   +3.49004881   +4.25044378   -1.41550445
 H   +0.38673051   -0.93757048   -0.39329960
 H   +4.00063375   +4.96550895   +0.09427328
 H   +4.37659309   +3.28406315   -0.24226596
 H   +1.50890644   +4.37949048   +0.11200620
 H   +1.03519893   +2.49875423   +1.38719992
 H   +3.30656877   +1.74230527   +2.56917581
 H   +3.93526983   +1.57998295   +0.87931820
 H   +3.14914165   -0.52496083   +1.94181119
 H   +2.39301053   -0.27739106   +0.37644493
 H   -1.03841476   +0.10100524   -0.29089174
 H   +0.56613610   +0.83621138   -0.40298510
 H   +3.65881403   +1.82141656   +3.52941769
22
 * E = +10.880 kcal/mol ; (19) 349_278_181_210
 C   +0.00000000   +0.00000000   +0.00000000
 O   +0.00000000   +0.00000000   +1.40929391
 C   +1.14098626   +0.00000000   +2.11301197
 C   +2.43041244   -0.25239554   +1.37845355
 C   +2.66631448   -1.73484213   +1.15846548
 C   +3.92116776   -2.05828752   +0.47530306
 C   +4.15388841   -3.09976726   -0.32686835
 C   +3.19553775   -4.16373929   -0.72821210
 O   +1.08984914   +0.15194440   +3.29736425
 H   +3.13118359   -4.23529912   -1.81308590
 H   +0.55506269   -0.83943410   -0.41105740
 H   +3.53575937   -5.13519110   -0.37142590
 H   +2.19527933   -4.00463056   -0.33885341
 H   +5.15275458   -3.19558446   -0.73238056
 H   +4.74754325   -1.38822784   +0.67852297
 H   +2.72830378   -2.21823193   +2.31445441
 H   +1.79912973   -2.25257923   +0.75936387
 H   +2.45247117   +0.27063634   +0.42326486
 H   +3.22371029   +0.15603453   +1.99713861
 H   -1.03878837   -0.08615289   -0.29379771
 H   +0.40179232   +0.93154915   -0.39260313
 H   +2.73500567   -2.58140167   +3.27247896
22
 * E = +12.086 kcal/mol ; (20) 009_082_047_053
 C   +0.00000000   +0.00000000   +0.00000000
 O   +0.00000000   +0.00000000   +1.40855690
 C   +1.14073537   +0.00000000   +2.10872563
 C   +2.44527039   +0.20441342   +1.38071265
 C   +2.73108339   +1.67577064   +1.10715117
 C   +2.56217780   +2.64804273   +2.20217431
 C   +3.10781005   +2.57421494   +3.41678280
 C   +4.02090802   +1.50820523   +3.91117369
 O   +1.08926092   -0.12668335   +3.29719513
 H   +4.68327930   +1.89236822   +4.68179018
 H   +0.41382681   -0.92539926   -0.39445598
 H   +3.44617320   +0.68847067   +4.34364134
 H   +4.63869866   +1.10385896   +3.11187896
 H   +2.86053721   +3.36074895   +4.11678084
 H   +1.94718113   +3.50914243   +1.97898647
 H   +3.92715702   +1.66496732   +0.77216842
 H   +2.25069731   +2.01982201   +0.19618102
 H   +3.20363012   -0.21249823   +2.03328517
 H   +2.47540872   -0.34668797   +0.44381321
 H   -1.03963794   +0.07285643   -0.29433381
 H   +0.54160231   +0.84904937   -0.40763789
 H   +4.92033937   +1.54631270   +0.48815024
22
 * E = +12.714 kcal/mol ; (21) 349_277_187_063
 C   +0.00000000   +0.00000000   +0.00000000
 O   +0.00000000   +0.00000000   +1.40904541
 C   +1.13998655   +0.00000000   +2.11290982
 C   +2.43603282   -0.24669430   +1.38620729
 C   +2.69404232   -1.72950890   +1.19085252
 C   +4.00762276   -2.09956705   +0.63520518
 C   +5.19278452   -1.88527647   +1.20865073
 C   +5.44128200   -1.27220444   +2.54208734
 O   +1.08781203   +0.14789340   +3.29811918
 H   +6.16815505   -1.86156432   +3.09718962
 H   +0.54734320   -0.84497581   -0.40996565
 H   +5.86344245   -0.27150682   +2.44211932
 H   +4.54132881   -1.20320290   +3.14546468
 H   +6.07145637   -2.20338065   +0.66273894
 H   +3.99739603   -2.61516066   -0.31650170
 H   +2.60118837   -2.24504986   +2.36593800
 H   +1.87501240   -2.22962232   +0.68141825
 H   +2.45735707   +0.25287846   +0.41826815
 H   +3.21849688   +0.19288649   +1.99407611
 H   -1.03938083   -0.07816839   -0.29383854
 H   +0.40928092   +0.92794570   -0.39328966
 H   +2.49964000   -2.61825485   +3.26716040
22
 * E = +12.735 kcal/mol ; (22) 009_094_303_078
 C   +0.00000000   +0.00000000   +0.00000000
 O   +0.00000000   +0.00000000   +1.41081770
 C   +1.13395845   +0.00000000   +2.11790919
 C   +2.44639627   +0.21237820   +1.40925570
 C   +2.88937374   +1.66483190   +1.40139151
 C   +2.00117814   +2.69562790   +0.82902588
 C   +0.92835168   +3.25702573   +1.38991554
 C   +0.36695362   +3.01301182   +2.74493183
 O   +1.07412502   -0.13293630   +3.30605195
 H   +0.15449880   +3.96140243   +3.23474361
 H   +0.42622597   -0.92149517   -0.39096053
 H   -0.57436418   +2.46771723   +2.67900809
 H   +1.03045984   +2.43911957   +3.38183935
 H   +0.40610576   +3.99614667   +0.79475768
 H   +2.28550013   +3.05641588   -0.15345105
 H   +3.12920509   +1.94688115   +2.66204331
 H   +3.89586007   +1.73370235   +0.99821287
 H   +3.17892813   -0.37206035   +1.95870706
 H   +2.42221591   -0.16466874   +0.38814652
 H   -1.04189357   +0.05515791   -0.29094086
 H   +0.52717436   +0.86098725   -0.39921808
 H   +3.37558627   +2.09661064   +3.56726904
