22
 * E =  +0.000 kcal/mol ; (1) 177_157_290_112_280
 C   +0.00000000   +0.00000000   +0.00000000
 O   +0.00000000   +0.00000000   +1.38136132
 C   +1.19880281   +0.00000000   +1.98866482
 C   +1.05984078   +0.08209236   +3.47539519
 C   +2.28700312   -0.46053693   +4.18952708
 C   +2.39510211   -1.94314930   +4.05170689
 C   +3.30881298   -2.62611327   +3.36941302
 C   +4.45626864   -2.08908886   +2.58935055
 O   +2.23190912   -0.03620456   +1.38347500
 H   +4.49859460   -1.00623915   +2.59160179
 H   +0.21680636   +1.26238534   -0.40371214
 H   +5.39694418   -2.47857041   +2.97742280
 H   +4.38552905   -2.40623595   +1.55008794
 H   +3.21793791   -3.70568957   +3.37497055
 H   +1.62127228   -2.50924995   +4.55756610
 H   +3.16969975   +0.03676641   +3.79885873
 H   +2.21062003   -0.19945447   +5.24469874
 H   +0.90413425   +1.13491356   +3.71513198
 H   +0.15248199   -0.43851867   +3.77284622
 H   +0.81865305   -0.55681799   -0.43740153
 H   -0.99159061   -0.23851607   -0.35618654
 H   +0.36115928   +2.15259509   -0.62829634
22
 * E =  +0.080 kcal/mol ; (2) 179_157_290_111_080
 C   +0.00000000   +0.00000000   +0.00000000
 O   +0.00000000   +0.00000000   +1.38162529
 C   +1.19970053   +0.00000000   +1.98651478
 C   +1.06571338   +0.02359715   +3.47590195
 C   +2.30252326   -0.53520485   +4.16146290
 C   +2.42802960   -2.00837572   +3.95443915
 C   +3.33874973   -2.64627954   +3.22617107
 C   +4.46627389   -2.05927031   +2.45320848
 O   +2.23139178   +0.01503448   +1.37773883
 H   +4.50130603   -0.97766637   +2.51182834
 H   +0.22991011   -1.26022363   -0.40482567
 H   +5.41722999   -2.46179248   +2.80079553
 H   +4.37500042   -2.32126014   +1.40028401
 H   +3.25980424   -3.72578510   +3.18065814
 H   +1.66855903   -2.60760073   +4.44345756
 H   +3.17766956   -0.00972260   +3.79111630
 H   +2.22656752   -0.32321742   +5.22758617
 H   +0.90091233   +1.06405866   +3.75984753
 H   +0.16601982   -0.51939655   +3.75563441
 H   -0.99414550   +0.22827668   -0.35576703
 H   +0.81274287   +0.56425548   -0.43907367
 H   +0.38372000   -2.14701256   -0.63206117
22
 * E =  +0.369 kcal/mol ; (3) 181_180_177_120_080
 C   +0.00000000   +0.00000000   +0.00000000
 O   +0.00000000   +0.00000000   +1.38152913
 C   +1.19943760   +0.00000000   +1.98936635
 C   +1.05069013   -0.02360936   +3.47563294
 C   +2.38712545   -0.03365948   +4.19335314
 C   +2.21249512   +0.02535829   +5.67306292
 C   +2.61821662   -0.86318722   +6.57427186
 C   +3.35148401   -2.13686126   +6.33447447
 O   +2.23265115   +0.02222410   +1.38392329
 H   +3.52727607   -2.33374211   +5.28219430
 H   +0.21311948   -1.26271297   -0.40363302
 H   +4.31802107   -2.12242713   +6.83662397
 H   +2.79841123   -2.98006303   +6.74594410
 H   +2.40093441   -0.64574536   +7.61268462
 H   +1.69064991   +0.90189109   +6.03990557
 H   +2.95108545   -0.91022462   +3.88932090
 H   +2.96679243   +0.82595742   +3.85652409
 H   +0.45094646   +0.84018236   +3.76326696
 H   +0.45326726   -0.89532540   +3.73970349
 H   -0.99107932   +0.24097592   -0.35601005
 H   +0.81980753   +0.55437839   -0.43850873
 H   +0.35522631   -2.15339448   -0.62791164
22
 * E =  +0.371 kcal/mol ; (4) 179_179_177_121_280
 C   +0.00000000   +0.00000000   +0.00000000
 O   +0.00000000   +0.00000000   +1.38154727
 C   +1.19952833   +0.00000000   +1.98923548
 C   +1.05106136   +0.02568276   +3.47547994
 C   +2.38718053   +0.00017948   +4.19338430
 C   +2.21492605   +0.10302393   +5.67094948
 C   +2.60318195   -0.76873523   +6.59592902
 C   +3.31043977   -2.06295069   +6.39028795
 O   +2.23265877   -0.02390655   +1.38370629
 H   +3.48112248   -2.29110232   +5.34346821
 H   +0.21150680   +1.26294544   -0.40376958
 H   +4.27772157   -2.05437912   +6.89113811
 H   +2.74118086   -2.88364382   +6.82459857
 H   +2.39161553   -0.51873443   +7.62815872
 H   +1.71187512   +0.99997359   +6.01381921
 H   +2.92846103   -0.89831853   +3.91293108
 H   +2.98832040   +0.83548085   +3.83388303
 H   +0.47728970   +0.91577892   +3.73417645
 H   +0.42837499   -0.81890825   +3.76806418
 H   +0.82043796   -0.55350199   -0.43840756
 H   -0.99079727   -0.24211879   -0.35602856
 H   +0.35233158   +2.15385524   -0.62803566
22
 * E =  +0.402 kcal/mol ; (5) 177_169_293_245_280
 C   +0.00000000   +0.00000000   +0.00000000
 O   +0.00000000   +0.00000000   +1.38158500
 C   +1.19834847   +0.00000000   +1.98975601
 C   +1.05008463   +0.07123300   +3.47579751
 C   +2.35323474   -0.19328782   +4.21170379
 C   +2.82595664   -1.59995728   +4.05055134
 C   +2.94201537   -2.52326335   +4.99987651
 C   +2.64092740   -2.38776681   +6.45238038
 O   +2.23187879   -0.03619643   +1.38468447
 H   +2.26463547   -1.40552184   +6.71916396
 H   +0.21454483   +1.26282114   -0.40331752
 H   +1.89922850   -3.12372283   +6.76021492
 H   +3.53295672   -2.57612479   +7.04858777
 H   +3.30408843   -3.49765993   +4.69597786
 H   +3.09931488   -1.87473471   +3.04023942
 H   +3.11165316   +0.48313820   +3.81837940
 H   +2.21410483   +0.05622294   +5.25955807
 H   +0.67169773   +1.06899521   +3.70130412
 H   +0.27050761   -0.62515602   +3.77769113
 H   +0.81912687   -0.55547894   -0.43823232
 H   -0.99131873   -0.24002297   -0.35588877
 H   +0.35736734   +2.15343609   -0.62699200
22
 * E =  +0.442 kcal/mol ; (6) 179_169_293_244_080
 C   +0.00000000   +0.00000000   +0.00000000
 O   +0.00000000   +0.00000000   +1.38175150
 C   +1.19878533   +0.00000000   +1.98860307
 C   +1.05230612   +0.01452226   +3.47659489
 C   +2.36295959   -0.24779736   +4.19995684
 C   +2.86670721   -1.63601359   +3.98291258
 C   +3.03024215   -2.58499192   +4.89922911
 C   +2.76349164   -2.50337406   +6.36244408
 O   +2.23163336   +0.01412865   +1.38129748
 H   +2.36880754   -1.54051430   +6.67027488
 H   +0.21818296   -1.26215673   -0.40388420
 H   +2.04970676   -3.26851745   +6.66503328
 H   +3.67543410   -2.68611221   +6.92959509
 H   +3.40846806   -3.53964778   +4.55513752
 H   +3.12102772   -1.87196997   +2.95789133
 H   +3.10494388   +0.46079301   +3.83247655
 H   +2.22043090   -0.04241569   +5.25689110
 H   +0.65125907   +0.99371949   +3.74128423
 H   +0.29021050   -0.71130677   +3.75243250
 H   -0.99209835   +0.23694651   -0.35574134
 H   +0.81769179   +0.55733488   -0.43867364
 H   +0.36372480   -2.15150523   -0.62880907
22
 * E =  +0.516 kcal/mol ; (7) 178_319_302_115_283
 C   +0.00000000   +0.00000000   +0.00000000
 O   +0.00000000   +0.00000000   +1.38041273
 C   +1.20247543   +0.00000000   +1.98361964
 C   +1.07323490   +0.05257850   +3.47353068
 C   -0.00716952   +1.01442780   +3.95542603
 C   +0.24467990   +2.40575582   +3.47810204
 C   -0.50296337   +3.11369081   +2.63718829
 C   -1.78437243   +2.71030960   +1.99622982
 O   +2.23001610   -0.06210287   +1.37193683
 H   -2.06591784   +1.68795025   +2.22407261
 H   +0.28168043   +1.25271980   -0.39734945
 H   -2.59391349   +3.36746625   +2.31258717
 H   -1.71030001   +2.80276035   +0.91361179
 H   -0.15320731   +4.10689090   +2.38454683
 H   +1.15567610   +2.86296335   +3.84586735
 H   -0.97885860   +0.65752588   +3.62892104
 H   -0.01118077   +0.99502356   +5.04533044
 H   +0.85737726   -0.95875630   +3.81932057
 H   +2.05181708   +0.32331311   +3.85867123
 H   +0.79249798   -0.59152842   -0.44029452
 H   -1.00142285   -0.19235397   -0.35703484
 H   +0.47908996   +2.13460652   -0.61165811
22
 * E =  +0.711 kcal/mol ; (8) 179_043_061_246_279
 C   +0.00000000   +0.00000000   +0.00000000
 O   +0.00000000   +0.00000000   +1.38043816
 C   +1.20081996   +0.00000000   +1.98746430
 C   +1.06213664   +0.02532828   +3.47695351
 C   -0.01560035   -0.91757529   +4.00104265
 C   +0.27581113   -2.33640945   +3.64187550
 C   -0.41662003   -3.11841667   +2.81963299
 C   -1.66449610   -2.78614719   +2.07891297
 O   +2.23149037   -0.00067831   +1.37831970
 H   -1.99676776   -1.76771536   +2.24750569
 H   +0.20288970   +1.26364061   -0.40769274
 H   -1.51478065   -2.91492579   +1.00731993
 H   -2.47040838   -3.46114595   +2.36463640
 H   -0.04104010   -4.12210871   +2.66339855
 H   +1.17123967   -2.75076316   +4.08981812
 H   -0.05242818   -0.81565949   +5.08558607
 H   -0.98231436   -0.60391201   +3.61977591
 H   +2.03905717   -0.21574643   +3.88500595
 H   +0.83242432   +1.05182557   +3.76372498
 H   +0.82436934   -0.54852257   -0.43714269
 H   -0.98921384   -0.24959145   -0.35653911
 H   +0.33668741   +2.15322504   -0.64008399
22
 * E =  +1.330 kcal/mol ; (9) 178_298_177_117_279
 C   +0.00000000   +0.00000000   +0.00000000
 O   +0.00000000   +0.00000000   +1.38113852
 C   +1.20038591   +0.00000000   +1.99103892
 C   +1.05200213   +0.04869242   +3.47642791
 C   +0.34928166   +1.32087123   +3.94962250
 C   +0.15114220   +1.31059808   +5.42729968
 C   +0.65957121   +2.15435253   +6.31922783
 C   +1.54924467   +3.32176895   +6.06914244
 O   +2.23199782   -0.03268042   +1.38328295
 H   +1.81213283   +3.44021908   +5.02327212
 H   +0.20276862   +1.26447449   -0.40081494
 H   +1.07366529   +4.24391197   +6.40077318
 H   +2.47351268   +3.22519507   +6.63687443
 H   +0.40156966   +1.98648981   +7.35746368
 H   -0.47953179   +0.51114527   +5.79847175
 H   +0.92333233   +2.18847911   +3.63515502
 H   -0.61844218   +1.38527094   +3.45295635
 H   +0.47566702   -0.82125394   +3.78995285
 H   +2.04481468   -0.02766833   +3.90639730
 H   +0.82415023   -0.54786583   -0.43843952
 H   -0.98913958   -0.24774789   -0.35684931
 H   +0.33659980   +2.15853920   -0.61938584
22
 * E =  +1.374 kcal/mol ; (10) 181_303_177_117_081
 C   +0.00000000   +0.00000000   +0.00000000
 O   +0.00000000   +0.00000000   +1.38127604
 C   +1.20043609   +0.00000000   +1.99043922
 C   +1.05497543   -0.02648992   +3.47698262
 C   +0.22961136   +1.14050532   +4.01563064
 C   +0.04708858   +1.03734633   +5.49184465
 C   +0.47192964   +1.88518177   +6.42274755
 C   +1.23188321   +3.15066111   +6.22764617
 O   +2.23162900   +0.02411981   +1.38158349
 H   +1.47347509   +3.34571128   +5.18808890
 H   +0.20956890   -1.26313921   -0.40364460
 H   +0.66425230   +4.00069876   +6.60415988
 H   +2.16521311   +3.12522437   +6.78811370
 H   +0.24241298   +1.64039037   +7.45231373
 H   -0.49253677   +0.15853512   +5.82515073
 H   +0.70797034   +2.07787827   +3.74340198
 H   -0.74418525   +1.12927226   +3.52703012
 H   +0.57392362   -0.96627856   +3.74798838
 H   +2.05336278   -0.02565323   +3.90090580
 H   -0.99027153   +0.24331897   -0.35682977
 H   +0.82184548   +0.55167583   -0.43793875
 H   +0.34830600   -2.15402112   -0.62942251
22
 * E =  +1.379 kcal/mol ; (11) 178_299_183_242_279
 C   +0.00000000   +0.00000000   +0.00000000
 O   +0.00000000   +0.00000000   +1.38118196
 C   +1.20060713   +0.00000000   +1.99082545
 C   +1.05195034   +0.04150592   +3.47649442
 C   +0.33193151   +1.30129579   +3.95605978
 C   +0.26314105   +1.35052738   +5.44492951
 C   -0.82797905   +1.36170997   +6.20356516
 C   -2.24915899   +1.33494559   +5.76015298
 O   +2.23194522   -0.02924595   +1.38251214
 H   -2.35683720   +1.26638202   +4.68276222
 H   +0.20105541   +1.26460567   -0.40156080
 H   -2.77148302   +0.48833022   +6.20341707
 H   -2.77064648   +2.23194534   +6.09179239
 H   -0.68096093   +1.39883969   +7.27580048
 H   +1.22227469   +1.37467949   +5.94853537
 H   +0.87739903   +2.17427981   +3.59423909
 H   -0.65610032   +1.34059285   +3.50832042
 H   +0.48868656   -0.83537695   +3.79173331
 H   +2.04882498   -0.02400776   +3.90066781
 H   +0.82478209   -0.54694708   -0.43835788
 H   -0.98879799   -0.24921341   -0.35681021
 H   +0.33314576   +2.15849787   -0.62150422
22
 * E =  +1.405 kcal/mol ; (12) 179_319_301_243_279
 C   +0.00000000   +0.00000000   +0.00000000
 O   +0.00000000   +0.00000000   +1.38122218
 C   +1.20110750   +0.00000000   +1.98986539
 C   +1.06527453   +0.02146259   +3.48003007
 C   -0.03248368   +0.94433678   +3.99888613
 C   +0.16892852   +2.36021277   +3.57307279
 C   +0.37705326   +3.41776221   +4.35027199
 C   +0.45445998   +3.46020725   +5.83678276
 O   +2.23102380   -0.04289087   +1.38080795
 H   +0.34072494   +2.48417359   +6.29707488
 H   +0.19860200   +1.26793709   -0.39103611
 H   +1.41060399   +3.87141357   +6.15753395
 H   -0.31785318   +4.11243418   +6.24258199
 H   +0.50587206   +4.37268180   +3.85629136
 H   +0.14199682   +2.52545008   +2.50217089
 H   -0.99121765   +0.58928812   +3.62274853
 H   -0.06573119   +0.85959314   +5.08123987
 H   +0.86352392   -1.00394087   +3.79230171
 H   +2.03690402   +0.29863007   +3.87619982
 H   +0.82597548   -0.54386558   -0.43969878
 H   -0.98878532   -0.24829763   -0.35736275
 H   +0.32912810   +2.16721390   -0.59107754
22
 * E =  +1.406 kcal/mol ; (13) 181_306_183_242_080
 C   +0.00000000   +0.00000000   +0.00000000
 O   +0.00000000   +0.00000000   +1.38136562
 C   +1.20086843   +0.00000000   +1.98978880
 C   +1.05700070   -0.03514810   +3.47646165
 C   +0.17346422   +1.08428211   +4.02196108
 C   +0.11989040   +1.05360814   +5.51207486
 C   -0.95054125   +0.87169636   +6.27842301
 C   -2.35923158   +0.66068653   +5.84468704
 O   +2.23139273   +0.02599676   +1.37995357
 H   -2.47150821   +0.63041403   +4.76600248
 H   +0.21436022   -1.26253228   -0.40361695
 H   -2.74675264   -0.27386132   +6.24778794
 H   -3.00031706   +1.45466263   +6.22566993
 H   -0.79503729   +0.87859422   +7.35006995
 H   +1.07275436   +1.19133825   +6.00929430
 H   +0.58387947   +2.04275121   +3.69958965
 H   -0.81640585   +1.00452405   +3.58419257
 H   +0.62642271   -0.99794457   +3.74928994
 H   +2.05757916   +0.01286582   +3.89442812
 H   -0.99116310   +0.23980919   -0.35673223
 H   +0.81964159   +0.55473486   -0.43815128
 H   +0.35640650   -2.15278439   -0.62917951
22
 * E =  +1.479 kcal/mol ; (14) 183_322_300_243_081
 C   +0.00000000   +0.00000000   +0.00000000
 O   +0.00000000   +0.00000000   +1.38146556
 C   +1.20106240   +0.00000000   +1.98924088
 C   +1.07110214   -0.06836487   +3.47861054
 C   -0.08806113   +0.73401244   +4.05858176
 C   +0.01147564   +2.18817588   +3.74001923
 C   +0.15193086   +3.19716420   +4.59336501
 C   +0.23722450   +3.13346621   +6.07863576
 O   +2.23082334   +0.02551985   +1.37878112
 H   +0.19399342   +2.12013511   +6.46412869
 H   +0.20884422   -1.26388626   -0.40321152
 H   +1.16529375   +3.58428422   +6.42734319
 H   -0.57495318   +3.69870441   +6.53401342
 H   +0.21068470   +4.19308134   +4.17233778
 H   -0.03516961   +2.42994836   +2.68468483
 H   -1.02015799   +0.34035054   +3.65511640
 H   -0.11329423   +0.56846199   +5.13178987
 H   +0.95057120   -1.12331700   +3.72845408
 H   +2.02276442   +0.25482778   +3.88846390
 H   -0.99011403   +0.24415413   -0.35675218
 H   +0.82272953   +0.55048534   -0.43777376
 H   +0.34723440   -2.15435308   -0.62891021
22
 * E =  +7.104 kcal/mol ; (15) 002_164_288_112_287
 C   +0.00000000   +0.00000000   +0.00000000
 O   +0.00000000   +0.00000000   +1.37437448
 C   +1.14825715   +0.00000000   +2.08744011
 C   +2.44410246   +0.05583321   +1.32771982
 C   +3.60379751   +0.44362334   +2.23222500
 C   +3.54264083   +1.88639029   +2.61119234
 C   +3.31133173   +2.39538414   +3.81668300
 C   +3.06955792   +1.66165848   +5.08746247
 O   +1.07254769   -0.06834347   +3.27612136
 H   +2.06689426   +1.87200315   +5.45638772
 H   +0.35766682   +1.20246574   -0.44995360
 H   +3.14940296   +0.58676476   +4.97649805
 H   +3.76996495   +1.98843734   +5.85503527
 H   +3.28790095   +3.47566728   +3.89436795
 H   +3.68711930   +2.58197681   +1.79233173
 H   +3.59888869   -0.19612874   +3.10896314
 H   +4.53088981   +0.25006680   +1.69293311
 H   +2.60783442   -0.93151084   +0.89024203
 H   +2.35928287   +0.75205984   +0.49548245
 H   +0.70300342   -0.68623081   -0.46173658
 H   -1.01718805   -0.11023454   -0.34922855
 H   +0.61887717   +2.06376117   -0.73250219
22
 * E =  +7.144 kcal/mol ; (16) 001_185_178_120_071
 C   +0.00000000   +0.00000000   +0.00000000
 O   +0.00000000   +0.00000000   +1.37465676
 C   +1.14858270   +0.00000000   +2.08770769
 C   +2.44063503   +0.02814382   +1.32490565
 C   +3.63974598   -0.10157268   +2.24660783
 C   +4.91705056   -0.12180835   +1.47749847
 C   +5.92843113   +0.73610906   +1.56551209
 C   +6.04169833   +1.92448362   +2.45559492
 O   +1.07361226   -0.01310782   +3.27851208
 H   +6.21622519   +2.82615375   +1.87016189
 H   +0.40119316   -1.19162769   -0.44338804
 H   +5.15753214   +2.08536380   +3.06329414
 H   +6.89272706   +1.81911600   +3.12723035
 H   +6.78284952   +0.55780048   +0.92444389
 H   +5.01653467   -0.93664842   +0.76948878
 H   +3.61665790   +0.70159569   +2.97590762
 H   +3.53628978   -1.02473841   +2.81661496
 H   +2.43383869   -0.76586192   +0.57806425
 H   +2.49626150   +0.96411135   +0.76646752
 H   -1.02031071   +0.07428943   -0.34934587
 H   +0.67966044   +0.70734682   -0.46417201
 H   +0.69188259   -2.04680779   -0.71467572
22
 * E =  +7.203 kcal/mol ; (17) 001_186_184_242_072
 C   +0.00000000   +0.00000000   +0.00000000
 O   +0.00000000   +0.00000000   +1.37476166
 C   +1.14856838   +0.00000000   +2.08760977
 C   +2.44042874   +0.02375087   +1.32391857
 C   +3.63970330   -0.12348545   +2.24300750
 C   +4.92070032   -0.00025037   +1.48988811
 C   +5.87304988   -0.91736440   +1.35438963
 C   +5.90178605   -2.29358135   +1.92214275
 O   +1.07368342   -0.01160564   +3.27844577
 H   +6.75342230   -2.41394747   +2.59047641
 H   +0.39213405   -1.19491356   -0.44283589
 H   +5.00473432   -2.54185414   +2.47944075
 H   +6.01976812   -3.03157067   +1.12996274
 H   +6.74135648   -0.64289596   +0.76832105
 H   +5.07821847   +0.95508374   +1.00212051
 H   +3.58240539   +0.64879240   +3.00908885
 H   +3.57011737   -1.07034196   +2.76951321
 H   +2.43190508   -0.76215982   +0.56962441
 H   +2.49750670   +0.96587279   +0.77446718
 H   -1.01974229   +0.08213310   -0.34925442
 H   +0.68493899   +0.70211250   -0.46427762
 H   +0.67563645   -2.05253841   -0.71296097
22
 * E =  +7.350 kcal/mol ; (18) 359_189_068_115_073
 C   +0.00000000   +0.00000000   +0.00000000
 O   +0.00000000   +0.00000000   +1.37493715
 C   +1.14676229   +0.00000000   +2.08882554
 C   +2.44104467   -0.01234690   +1.32635126
 C   +3.63979485   -0.23489562   +2.23576137
 C   +3.66322083   -1.60748059   +2.82179352
 C   +4.56753068   -2.55689523   +2.60320838
 C   +5.77594274   -2.49212675   +1.73470032
 O   +1.06906285   +0.02852588   +3.27961632
 H   +5.74774336   -3.27743930   +0.98039834
 H   +0.37617748   -1.19868358   -0.44770413
 H   +5.88158929   -1.54192300   +1.22118319
 H   +6.67921493   -2.65572585   +2.32117803
 H   +4.42361439   -3.49882610   +3.11776784
 H   +2.84611121   -1.82845927   +3.49523498
 H   +4.54286998   -0.03713957   +1.66551163
 H   +3.59845126   +0.49661093   +3.04171737
 H   +2.40025424   -0.77457049   +0.55000435
 H   +2.52806496   +0.94838764   +0.81444656
 H   -1.01871891   +0.09563529   -0.34883987
 H   +0.69339719   +0.69504366   -0.46258973
 H   +0.64796858   -2.05662083   -0.72708196
22
 * E =  +7.378 kcal/mol ; (19) 002_190_074_247_293
 C   +0.00000000   +0.00000000   +0.00000000
 O   +0.00000000   +0.00000000   +1.37422075
 C   +1.14078182   +0.00000000   +2.10107268
 C   +2.44573504   +0.04404970   +1.35791352
 C   +3.62838940   -0.19973491   +2.28193388
 C   +3.73382370   -1.63556090   +2.67761828
 C   +3.54933219   -2.15724944   +3.88571081
 C   +3.20136098   -1.44464495   +5.14366046
 O   +1.04630928   -0.00090352   +3.29016918
 H   +3.93019096   -1.66742428   +5.92196224
 H   +0.49961890   +1.15348239   -0.45824440
 H   +3.14155989   -0.37023950   +5.01676159
 H   +2.23059892   -1.77844322   +5.50672623
 H   +3.65783513   -3.23136233   +3.97634031
 H   +3.97651649   -2.31662157   +1.86944110
 H   +4.53445394   +0.09512573   +1.75289377
 H   +3.53787692   +0.44357691   +3.15153109
 H   +2.44184518   -0.68884033   +0.55235072
 H   +2.51219033   +1.02036841   +0.87573338
 H   +0.61107670   -0.76702723   -0.46502513
 H   -1.02386193   +0.01358868   -0.34696943
 H   +0.84289471   +1.97652093   -0.75497184
22
 * E =  +7.413 kcal/mol ; (20) 359_181_070_116_290
 C   +0.00000000   +0.00000000   +0.00000000
 O   +0.00000000   +0.00000000   +1.37455675
 C   +1.14445611   +0.00000000   +2.09364667
 C   +2.44087562   -0.01965106   +1.33633123
 C   +3.64917851   -0.03129241   +2.26034526
 C   +3.80791825   -1.32791426   +2.98284425
 C   +4.81345047   -2.19007160   +2.86844880
 C   +6.02503363   -2.08103890   +2.00854628
 O   +1.05978367   +0.02817596   +3.28381746
 H   +6.10079819   -2.93926652   +1.34203067
 H   +0.42852098   +1.18243838   -0.44617360
 H   +6.03574039   -1.18395870   +1.39793747
 H   +6.92831829   -2.07931857   +2.61742536
 H   +4.76264067   -3.08540351   +3.47559884
 H   +3.00744435   -1.56695225   +3.66962324
 H   +4.53196911   +0.19673981   +1.67005514
 H   +3.53108114   +0.77092551   +2.98789085
 H   +2.46119465   -0.89293721   +0.68406828
 H   +2.45897792   +0.85222864   +0.68164309
 H   +0.66138325   -0.72368589   -0.46507959
 H   -1.02208123   -0.04992899   -0.34855082
 H   +0.73375494   +2.02991724   -0.72276657
22
 * E =  +9.003 kcal/mol ; (21) 003_090_180_244_071
 C   +0.00000000   +0.00000000   +0.00000000
 O   +0.00000000   +0.00000000   +1.37447102
 C   +1.14443931   +0.00000000   +2.09476927
 C   +2.45418164   +0.06433094   +1.36490284
 C   +2.89089107   +1.51982266   +1.16968052
 C   +4.19121749   +1.60421953   +0.44477831
 C   +5.34056155   +2.08436145   +0.90784580
 C   +5.61472849   +2.66005896   +2.25290537
 O   +1.05802188   -0.00520152   +3.28543697
 H   +5.94185996   +3.69533558   +2.16610469
 H   +0.41956279   -1.18520185   -0.44146482
 H   +4.75298016   +2.63598594   +2.91133971
 H   +6.42274079   +2.11720578   +2.74088922
 H   +6.18855549   +2.06163119   +0.23479709
 H   +4.18120745   +1.21800993   -0.56765817
 H   +2.12896703   +2.05892493   +0.60286866
 H   +2.94383551   +1.99874473   +2.14282959
 H   +3.17960980   -0.44272556   +1.99233916
 H   +2.41614733   -0.45576485   +0.41136499
 H   -1.02140930   +0.06087293   -0.34903038
 H   +0.66874323   +0.71810967   -0.46392121
 H   +0.73187222   -2.03401374   -0.70747606
22
 * E =  +9.012 kcal/mol ; (22) 002_092_175_121_071
 C   +0.00000000   +0.00000000   +0.00000000
 O   +0.00000000   +0.00000000   +1.37457253
 C   +1.14433256   +0.00000000   +2.09437479
 C   +2.45385933   +0.04752586   +1.36259739
 C   +2.91477971   +1.49658020   +1.17707161
 C   +4.26662350   +1.55587038   +0.55185983
 C   +4.60602892   +2.14028261   -0.59226377
 C   +3.72924374   +2.88979568   -1.53383184
 O   +1.05928638   +0.00698847   +3.28508534
 H   +3.76354581   +2.44319626   -2.52652695
 H   +0.40598970   -1.19018895   -0.44097603
 H   +2.69181813   +2.92296818   -1.21689849
 H   +4.07451764   +3.91706506   -1.64169891
 H   +5.64619482   +2.07682212   -0.88601795
 H   +5.04845047   +1.05449037   +1.10966967
 H   +2.18711758   +2.05344125   +0.59084771
 H   +2.94440254   +1.96624629   +2.16042307
 H   +3.16779255   -0.47811679   +1.98941734
 H   +2.41115157   -0.46313997   +0.40515760
 H   -1.02066427   +0.07259930   -0.34893759
 H   +0.67770712   +0.70976041   -0.46386922
 H   +0.70765384   -2.04287410   -0.70585748
22
 * E =  +9.681 kcal/mol ; (23) 349_278_293_093_293
 C   +0.00000000   +0.00000000   +0.00000000
 O   +0.00000000   +0.00000000   +1.37429319
 C   +1.14601036   +0.00000000   +2.09989744
 C   +2.43496648   -0.25876892   +1.37820311
 C   +2.65183673   -1.76616428   +1.16619260
 C   +2.87270025   -2.50100444   +2.44874279
 C   +1.94058699   -3.10111948   +3.18012582
 C   +0.48164943   -3.17345895   +2.89589105
 O   +1.05789538   +0.14643995   +3.28031880
 H   -0.06748197   -2.57158307   +3.61884272
 H   +0.48563765   +1.16021442   -0.43509179
 H   +0.22183282   -2.80380165   +1.90787886
 H   +0.11827158   -4.19600027   +2.98079286
 H   +2.25862201   -3.56672477   +4.10400869
 H   +3.88845675   -2.50021470   +2.82174828
 H   +1.80806871   -2.19123761   +0.62501482
 H   +3.52091163   -1.88673798   +0.52238009
 H   +2.46474122   +0.26681617   +0.42708550
 H   +3.22337321   +0.13849937   +2.00902838
 H   +0.63054273   -0.74819715   -0.46933471
 H   -1.02320347   -0.00536408   -0.34937255
 H   +0.85098780   +1.99212981   -0.69180400
22
 * E =  +9.725 kcal/mol ; (24) 005_086_065_130_069
 C   +0.00000000   +0.00000000   +0.00000000
 O   +0.00000000   +0.00000000   +1.37443769
 C   +1.14233984   +0.00000000   +2.10005458
 C   +2.44909673   +0.12516221   +1.37298610
 C   +2.82306826   +1.59514129   +1.13615296
 C   +3.08636396   +2.33309884   +2.40666134
 C   +4.14792630   +3.08104803   +2.68787386
 C   +5.32260051   +3.37349497   +1.82064059
 O   +1.04785826   -0.05496668   +3.28907032
 H   +5.28459650   +2.86541270   +0.86243436
 H   +0.44284143   -1.17699874   -0.43931528
 H   +5.39617498   +4.44262494   +1.62502262
 H   +6.24698095   +3.08315852   +2.31777530
 H   +4.17312228   +3.54488189   +3.66582096
 H   +2.32543779   +2.23205646   +3.16947643
 H   +3.69161207   +1.61876307   +0.48435165
 H   +2.01773778   +2.09305980   +0.59134981
 H   +3.19678040   -0.33808983   +2.00833338
 H   +2.42500555   -0.41333257   +0.42973458
 H   -1.02258418   +0.04074992   -0.34862684
 H   +0.65502321   +0.72843642   -0.46662478
 H   +0.77383653   -2.02003130   -0.70274867
22
 * E =  +9.797 kcal/mol ; (25) 005_280_181_115_089
 C   +0.00000000   +0.00000000   +0.00000000
 O   +0.00000000   +0.00000000   +1.37263125
 C   +1.11881679   +0.00000000   +2.13208399
 C   +2.45762482   +0.11186069   +1.46309034
 C   +2.93438894   -1.22243823   +0.88404600
 C   +4.27540498   -1.08195942   +0.24634760
 C   +5.41249973   -1.65560115   +0.62541062
 C   +5.63116191   -2.58098277   +1.77072901
 O   +0.98571374   -0.09666420   +3.31483102
 H   +6.39681399   -2.18683647   +2.43715683
 H   +0.02178143   -1.25391053   -0.43426845
 H   +4.73522147   -2.75189008   +2.35798670
 H   +5.99051237   -3.54701788   +1.41862395
 H   +6.29423423   -1.43396039   +0.03717884
 H   +4.30833119   -0.42920637   -0.61819107
 H   +2.95009684   -1.96177285   +1.67971180
 H   +2.22198990   -1.58260557   +0.14207708
 H   +2.45181635   +0.87890592   +0.69046185
 H   +3.14594156   +0.43508734   +2.23631174
 H   -0.95416938   +0.36555421   -0.35484266
 H   +0.85497774   +0.46955727   -0.47314165
 H   +0.03350372   -2.15583129   -0.72128749
