22
 * E =  +0.000 kcal/mol ; (1) 177_156_288_114_091
 C   +0.00000000   +0.00000000   +0.00000000
 O   +0.00000000   +0.00000000   +1.41711294
 C   +1.20047902   +0.00000000   +1.98791917
 C   +1.11213768   +0.06218527   +3.48202775
 C   +2.35030926   -0.51658078   +4.14747773
 C   +2.41005710   -2.00158540   +4.02439897
 C   +3.31203485   -2.71263726   +3.34016006
 C   +4.43950826   -2.18045391   +2.58089744
 O   +2.22384827   -0.01415914   +1.35774953
 H   +5.44699428   -2.10976393   +3.33069072
 H   +0.50664985   -0.88263167   -0.37707488
 H   +4.79779229   -2.83662556   +1.79585931
 H   +4.32370624   -1.16393666   +2.22514381
 H   +3.22123970   -3.79047520   +3.37441967
 H   +1.62895415   -2.54451890   +4.54325098
 H   +3.23268800   -0.05157779   +3.71735013
 H   +2.32932399   -0.24781306   +5.20361480
 H   +0.99288347   +1.11469711   +3.74224619
 H   +0.20340440   -0.44079542   +3.80383352
 H   -1.04085387   -0.00132518   -0.29605258
 H   +0.50449414   +0.88351961   -0.37853415
 H   +6.29310209   -2.01105335   +3.88857434
22
 * E =  +0.349 kcal/mol ; (2) 180_144_288_106_257
 C   +0.00000000   +0.00000000   +0.00000000
 O   +0.00000000   +0.00000000   +1.41833153
 C   +1.20192682   +0.00000000   +1.98272737
 C   +1.13757800   +0.00981477   +3.47973209
 C   +2.26266082   -0.82417022   +4.07899508
 C   +2.03487951   -2.28549681   +3.88203880
 C   +2.66230596   -3.09571292   +3.02271044
 C   +3.68759059   -2.73337917   +2.05033085
 O   +2.22281663   +0.01385296   +1.34808691
 H   +3.14443823   -2.69170466   +0.91230602
 H   +0.52808623   -0.87106748   -0.37477757
 H   +4.10064861   -1.73624054   +2.13244251
 H   +4.44941858   -3.48972981   +1.89495628
 H   +2.35764475   -4.13457704   +3.01790440
 H   +1.26591618   -2.72401596   +4.50644859
 H   +3.20196409   -0.50775412   +3.63399069
 H   +2.32038206   -0.61126495   +5.14568812
 H   +1.23207423   +1.05055733   +3.79088049
 H   +0.15928444   -0.33511972   +3.80263772
 H   -1.04074651   -0.02456212   -0.29542962
 H   +0.48452917   +0.89486427   -0.37791022
 H   +2.75267931   -2.64663388   -0.01632303
22
 * E =  +0.464 kcal/mol ; (3) 182_190_067_109_268
 C   +0.00000000   +0.00000000   +0.00000000
 O   +0.00000000   +0.00000000   +1.41692880
 C   +1.20084130   +0.00000000   +1.98804885
 C   +1.10291844   -0.03711352   +3.48202782
 C   +2.44177889   +0.19712690   +4.16441598
 C   +2.95632573   +1.57924922   +3.94588464
 C   +3.03350827   +2.55383824   +4.85839222
 C   +2.62270933   +2.47693248   +6.25796246
 O   +2.22440091   +0.00830212   +1.35800320
 H   +1.43575071   +2.86758586   +6.36245436
 H   +0.50276675   -0.88430295   -0.37891303
 H   +2.57150134   +1.48329345   +6.68792355
 H   +3.13994321   +3.16399593   +6.91820578
 H   +3.40569235   +3.51417689   +4.52707086
 H   +3.28444636   +1.79473070   +2.93826648
 H   +2.32836231   -0.01475368   +5.22405057
 H   +3.15993814   -0.51731557   +3.76359956
 H   +0.36062450   +0.69314129   +3.79731060
 H   +0.70055241   -1.01532783   +3.74672817
 H   -1.04088809   +0.00302956   -0.29590987
 H   +0.50755844   +0.88177890   -0.37808793
 H   +0.45900963   +3.14340464   +6.50640024
22
 * E =  +0.579 kcal/mol ; (4) 179_170_294_244_265
 C   +0.00000000   +0.00000000   +0.00000000
 O   +0.00000000   +0.00000000   +1.41702782
 C   +1.20121273   +0.00000000   +1.98796205
 C   +1.10309828   +0.03426686   +3.48214659
 C   +2.43865471   -0.20612304   +4.16725294
 C   +2.95553018   -1.58707583   +3.94881764
 C   +3.15907196   -2.52194147   +4.88310103
 C   +2.94637551   -2.38711608   +6.32151161
 O   +2.22440387   -0.00685379   +1.35763110
 H   +4.02907264   -2.06927556   +6.87567870
 H   +0.50417971   -0.88372968   -0.37808230
 H   +2.28561059   -1.58763896   +6.63571158
 H   +2.70887572   -3.31521804   +6.82944952
 H   +3.55751286   -3.47213214   +4.55281112
 H   +3.18051475   -1.83540623   +2.92038630
 H   +3.16148627   +0.50483250   +3.76718852
 H   +2.33261469   +0.00996050   +5.22658977
 H   +0.70388252   +1.01350832   +3.74768962
 H   +0.35629604   -0.69296399   +3.79390329
 H   -1.04087828   +0.00089160   -0.29596633
 H   +0.50626051   +0.88226835   -0.37891299
 H   +4.86702275   -1.79066799   +7.38775492
22
 * E =  +0.620 kcal/mol ; (5) 180_181_183_243_095
 C   +0.00000000   +0.00000000   +0.00000000
 O   +0.00000000   +0.00000000   +1.41682868
 C   +1.20206628   +0.00000000   +1.98783763
 C   +1.10275511   +0.00153059   +3.48134284
 C   +2.46502467   +0.02724488   +4.15058702
 C   +2.34527573   -0.04837277   +5.63295759
 C   +2.71708956   +0.87949728   +6.52075867
 C   +3.30773543   +2.18240069   +6.22812383
 O   +2.22526977   -0.00151404   +1.35851223
 H   +2.39751211   +3.04770795   +6.18933369
 H   +0.50361251   -0.88383275   -0.37888133
 H   +3.94577183   +2.57350740   +7.01260269
 H   +3.76906710   +2.29105252   +5.25389779
 H   +2.53661646   +0.66612694   +7.56596580
 H   +1.90289261   -0.95869435   +6.01968553
 H   +3.04594342   -0.81868515   +3.78289355
 H   +2.99940562   +0.91862392   +3.83599446
 H   +0.50008481   +0.85796549   +3.78001878
 H   +0.53102890   -0.87806323   +3.77691238
 H   -1.04088294   +0.00197949   -0.29608067
 H   +0.50679942   +0.88210032   -0.37857623
 H   +1.70141540   +3.79122153   +6.11866222
22
 * E =  +0.817 kcal/mol ; (6) 183_320_296_119_256
 C   +0.00000000   +0.00000000   +0.00000000
 O   +0.00000000   +0.00000000   +1.41779710
 C   +1.20471591   +0.00000000   +1.98394251
 C   +1.12999731   -0.06659882   +3.47976125
 C   +0.01877988   +0.77591310   +4.09297484
 C   +0.22325733   +2.23206592   +3.85100975
 C   -0.58209067   +3.06333264   +3.18200343
 C   -1.83387473   +2.72754200   +2.51208465
 O   +2.22391295   +0.01147897   +1.34891938
 H   -1.62801199   +2.68203270   +1.27057196
 H   +0.50952325   -0.88213171   -0.37532209
 H   -2.24060567   +1.74502685   +2.71684728
 H   -2.59471421   +3.49878016   +2.56653614
 H   -0.26994238   +4.09657690   +3.10381172
 H   +1.13093140   +2.64830092   +4.27121925
 H   -0.93912435   +0.44134100   +3.70789465
 H   +0.01481188   +0.59040181   +5.16779175
 H   +0.98413928   -1.11498346   +3.74151366
 H   +2.10665671   +0.22394751   +3.85548638
 H   -1.04043327   -0.00082181   -0.29693013
 H   +0.50029076   +0.88603714   -0.37648285
 H   -1.54257417   +2.64659668   +0.26043985
22
 * E =  +0.927 kcal/mol ; (7) 179_042_062_243_266
 C   +0.00000000   +0.00000000   +0.00000000
 O   +0.00000000   +0.00000000   +1.41643894
 C   +1.20498661   +0.00000000   +1.98498087
 C   +1.12130322   +0.01853182   +3.48122962
 C   +0.04570162   -0.90221878   +4.04543000
 C   +0.30297798   -2.32956609   +3.70212522
 C   -0.46758159   -3.12546562   +2.95340818
 C   -1.74565486   -2.77416828   +2.34197232
 O   +2.22364508   +0.01209269   +1.34970523
 H   -2.68170973   -3.10946240   +3.11284999
 H   +0.50435027   -0.88446621   -0.37605126
 H   -1.92252824   -1.71513423   +2.19788132
 H   -1.98702731   -3.34309583   +1.45097827
 H   -0.13397809   -4.14455069   +2.80900213
 H   +1.22542570   -2.74393925   +4.09039907
 H   +0.04053556   -0.78920865   +5.12996596
 H   -0.92891573   -0.58106238   +3.69102582
 H   +2.10747837   -0.24238479   +3.85358025
 H   +0.92302901   +1.04785703   +3.78075549
 H   -1.04061799   +0.00167003   -0.29788641
 H   +0.50730284   +0.88175895   -0.37864936
 H   -3.48470982   -3.33834012   +3.69551156
22
 * E =  +1.660 kcal/mol ; (8) 180_307_177_120_094
 C   +0.00000000   +0.00000000   +0.00000000
 O   +0.00000000   +0.00000000   +1.41681696
 C   +1.20378228   +0.00000000   +1.98790301
 C   +1.11226002   -0.01146211   +3.48200144
 C   +0.23473516   +1.10610793   +4.03941984
 C   +0.11250154   +1.01426001   +5.52035576
 C   +0.48280846   +1.93201766   +6.41906906
 C   +1.06582392   +3.24150553   +6.14283986
 O   +2.22386873   +0.00192522   +1.35393018
 H   +0.15177557   +4.10547792   +6.11738142
 H   +0.50261764   -0.88466158   -0.37820529
 H   +1.70372463   +3.62425648   +6.93145054
 H   +1.52522824   +3.36547215   +5.16929246
 H   +0.30426599   +1.70412250   +7.46147841
 H   -0.31814512   +0.09280373   +5.89349504
 H   +0.63580609   +2.07081008   +3.73835272
 H   -0.75399871   +1.02578490   +3.58850110
 H   +0.70305456   -0.97690456   +3.78067836
 H   +2.12356520   +0.05448043   +3.86902872
 H   -1.04073734   +0.00367004   -0.29672595
 H   +0.50891894   +0.88091082   -0.37830924
 H   -0.54068068   +4.85034194   +6.06161934
22
 * E =  +1.675 kcal/mol ; (9) 181_312_183_239_265
 C   +0.00000000   +0.00000000   +0.00000000
 O   +0.00000000   +0.00000000   +1.41686027
 C   +1.20384501   +0.00000000   +1.98775333
 C   +1.11481508   -0.02473400   +3.48205588
 C   +0.13461375   +0.99371003   +4.05502272
 C   +0.13644997   +0.97242722   +5.54415641
 C   -0.90504643   +0.72759530   +6.34588609
 C   -2.27988522   +0.45725187   +5.93634993
 O   +2.22359122   +0.00381992   +1.35331892
 H   -2.93613409   +1.53014866   +5.95584426
 H   +0.49897486   -0.88673456   -0.37817944
 H   -2.41828272   +0.12318851   +4.91490646
 H   -2.84387637   -0.15369554   +6.63212285
 H   -0.72824152   +0.76606177   +7.41255709
 H   +1.09304645   +1.17036616   +6.01227593
 H   +0.42460373   +1.98974085   +3.71503828
 H   -0.85609089   +0.80802121   +3.65281509
 H   +0.80685688   -1.02774999   +3.77713027
 H   +2.11926885   +0.13305682   +3.86271950
 H   -1.04071165   +0.00795530   -0.29674324
 H   +0.51270489   +0.87875671   -0.37809621
 H   -3.51951406   +2.36491256   +5.92958411
22
 * E =  +1.698 kcal/mol ; (10) 181_314_183_244_095
 C   +0.00000000   +0.00000000   +0.00000000
 O   +0.00000000   +0.00000000   +1.41679434
 C   +1.20380343   +0.00000000   +1.98756004
 C   +1.11680513   -0.03276819   +3.48200125
 C   +0.10812513   +0.95472486   +4.06128800
 C   +0.11863520   +0.92548949   +5.55045852
 C   -0.88005902   +0.54613394   +6.35425954
 C   -2.19582588   +0.06183524   +5.94719553
 O   +2.22346818   +0.00798762   +1.35295565
 H   -2.18060271   -1.19473567   +5.92055938
 H   +0.50548474   -0.88302759   -0.37813256
 H   -2.98732184   +0.25389890   +6.66279589
 H   -2.50646004   +0.30803006   +4.93888886
 H   -0.69231023   +0.56495619   +7.41959117
 H   +1.04410960   +1.24004386   +6.01702844
 H   +0.36625579   +1.95908124   +3.72112345
 H   -0.87639396   +0.73179081   +3.66310433
 H   +0.83826285   -1.04548159   +3.77311513
 H   +2.11715033   +0.15084124   +3.86178280
 H   -1.04078069   +0.00012003   -0.29666674
 H   +0.50600634   +0.88253829   -0.37841473
 H   -2.22469972   -2.21172571   +5.85524716
22
 * E =  +1.722 kcal/mol ; (11) 182_325_299_241_265
 C   +0.00000000   +0.00000000   +0.00000000
 O   +0.00000000   +0.00000000   +1.41689457
 C   +1.20431307   +0.00000000   +1.98721111
 C   +1.12760685   -0.05351231   +3.48364478
 C   -0.05324601   +0.68876863   +4.09745342
 C   -0.03529181   +2.14581985   +3.78703983
 C   +0.04333295   +3.15460663   +4.66081251
 C   +0.09951972   +3.05121758   +6.11596223
 O   +2.22331236   +0.00754112   +1.35221110
 H   -1.06117002   +3.16908162   +6.58616474
 H   +0.49797102   -0.88741097   -0.37784504
 H   +0.41238974   +2.09432866   +6.51689784
 H   +0.61499685   +3.87030496   +6.60467968
 H   +0.03049564   +4.15912724   +4.25929969
 H   -0.08803272   +2.39615987   +2.73471283
 H   -0.97530152   +0.25503988   +3.71160760
 H   -0.05014441   +0.51791367   +5.17038262
 H   +1.07524559   -1.11007239   +3.74926201
 H   +2.07391201   +0.32382710   +3.85874030
 H   -1.04071175   +0.00935083   -0.29669647
 H   +0.51450231   +0.87772263   -0.37825664
 H   -1.97565459   +3.23426135   +7.03149948
22
 * E =  +1.747 kcal/mol ; (12) 182_328_298_246_094
 C   +0.00000000   +0.00000000   +0.00000000
 O   +0.00000000   +0.00000000   +1.41690853
 C   +1.20490253   +0.00000000   +1.98661185
 C   +1.13135666   -0.05520261   +3.48316196
 C   -0.07675584   +0.63936151   +4.10067419
 C   -0.10575284   +2.09860499   +3.80045326
 C   +0.01859066   +3.10280281   +4.67431506
 C   +0.22133905   +2.99074058   +6.11597373
 O   +2.22306842   +0.00716562   +1.35048736
 H   +1.45157534   +3.04367318   +6.36597660
 H   +0.50082816   -0.88579014   -0.37784386
 H   -0.15331583   +3.83109031   +6.68946518
 H   -0.06294198   +2.04822465   +6.56877085
 H   +0.00079776   +4.10903701   +4.27728532
 H   -0.23741534   +2.35436525   +2.75660272
 H   -0.98142518   +0.17396051   +3.71115964
 H   -0.05931172   +0.46207684   +5.17242811
 H   +1.12179642   -1.11328170   +3.74805212
 H   +2.06270800   +0.35798866   +3.85803773
 H   -1.04073563   +0.00614326   -0.29681713
 H   +0.51188142   +0.87929319   -0.37817995
 H   +2.43640424   +3.05258059   +6.63452761
22
 * E =  +1.781 kcal/mol ; (13) 181_309_176_115_264
 C   +0.00000000   +0.00000000   +0.00000000
 O   +0.00000000   +0.00000000   +1.41667205
 C   +1.20407994   +0.00000000   +1.98792752
 C   +1.11400430   -0.02022343   +3.48232532
 C   +0.19339965   +1.05816401   +4.04854719
 C   +0.07206772   +0.94208698   +5.52813103
 C   +0.47894042   +1.82578669   +6.44496447
 C   +1.15435685   +3.09651532   +6.19958190
 O   +2.22369868   +0.00392428   +1.35353222
 H   +2.39651760   +2.92829245   +6.30448256
 H   +0.50423745   -0.88371463   -0.37829360
 H   +1.06209223   +3.50457717   +5.20022723
 H   +0.97465896   +3.85458177   +6.95355676
 H   +0.32578050   +1.56600292   +7.48399997
 H   -0.39465231   +0.03157584   +5.88419773
 H   +0.56753807   +2.03768721   +3.76130549
 H   -0.78896591   +0.94667998   +3.59116022
 H   +0.74430978   -1.00357044   +3.77452372
 H   +2.12226901   +0.08161944   +3.86940296
 H   -1.04074902   +0.00180229   -0.29681151
 H   +0.50742822   +0.88172956   -0.37844906
 H   +3.41112020   +2.85236950   +6.35258480
22
 * E =  +8.186 kcal/mol ; (14) 004_190_065_080_271
 C   +0.00000000   +0.00000000   +0.00000000
 O   +0.00000000   +0.00000000   +1.41008119
 C   +1.14340536   +0.00000000   +2.10244453
 C   +2.43380640   +0.08928549   +1.33225740
 C   +3.63462774   -0.16874642   +2.22908067
 C   +3.64849133   -1.57192149   +2.74556444
 C   +4.06219481   -2.63645035   +2.04960296
 C   +4.56712041   -2.60615320   +0.67901115
 O   +1.09891134   -0.04405279   +3.29786169
 H   +3.61127434   -2.73016051   -0.11260592
 H   +0.40552177   -0.92811199   -0.39629605
 H   +4.99901381   -1.66325492   +0.35872341
 H   +5.19948100   -3.44272263   +0.40423210
 H   +3.97851875   -3.60951143   +2.51377904
 H   +3.25096782   -1.72420591   +3.73786836
 H   +4.53846188   +0.03732565   +1.65715182
 H   +3.60848265   +0.52784621   +3.06203508
 H   +2.42214631   -0.61744851   +0.50398067
 H   +2.48935295   +1.08467273   +0.88694564
 H   -1.03875303   +0.08650155   -0.29324063
 H   +0.55360063   +0.84448868   -0.40353793
 H   +2.84358607   -2.77088575   -0.81023295
22
 * E =  +8.353 kcal/mol ; (15) 001_194_075_245_270
 C   +0.00000000   +0.00000000   +0.00000000
 O   +0.00000000   +0.00000000   +1.40884619
 C   +1.14002017   +0.00000000   +2.10834325
 C   +2.43940271   +0.02216498   +1.34693666
 C   +3.62119176   -0.31541029   +2.24204253
 C   +3.68665068   -1.77159203   +2.55808134
 C   +3.54855813   -2.33838194   +3.76056546
 C   +3.31040409   -1.64497969   +5.02237019
 O   +1.08238940   +0.01643240   +3.30335940
 H   +4.41597354   -1.35957951   +5.55087743
 H   +0.36153248   -0.94582200   -0.39729891
 H   +2.81837783   -0.68394673   +4.93749920
 H   +2.85224911   -2.25917329   +5.78899401
 H   +3.65342042   -3.41413284   +3.81404742
 H   +3.86655986   -2.42393846   +1.71138771
 H   +4.53463650   -0.02584041   +1.72198889
 H   +3.56421494   +0.28053036   +3.14768304
 H   +2.39441813   -0.66138210   +0.50062128
 H   +2.54932413   +1.02254451   +0.92358882
 H   -1.03379000   +0.13261714   -0.29379318
 H   +0.59095523   +0.81821458   -0.40455857
 H   +5.27627837   -1.08344870   +6.01862205
22
 * E =  +8.377 kcal/mol ; (16) 001_183_180_280_089
 C   +0.00000000   +0.00000000   +0.00000000
 O   +0.00000000   +0.00000000   +1.40953195
 C   +1.14438299   +0.00000000   +2.10352063
 C   +2.43269568   +0.03466276   +1.32885369
 C   +3.64305878   -0.03192011   +2.24536401
 C   +4.91950577   -0.00095938   +1.46950186
 C   +5.46338904   -1.05144773   +0.84548490
 C   +4.89758934   -2.39750672   +0.81885657
 O   +1.09859103   -0.02385496   +3.29898164
 H   +4.13002031   -2.49965990   -0.16104066
 H   +0.46118787   -0.89986022   -0.40017438
 H   +5.61103847   -3.19180327   +0.63181535
 H   +4.23748784   -2.64315460   +1.64447655
 H   +6.37309187   -0.89496050   +0.28208342
 H   +5.42440549   +0.95242495   +1.39061051
 H   +3.60064483   +0.79460968   +2.94891805
 H   +3.57179676   -0.93647437   +2.84664939
 H   +2.45003244   -0.79094502   +0.61684914
 H   +2.45858212   +0.94230928   +0.72454198
 H   -1.04195368   +0.02371032   -0.29343983
 H   +0.50118134   +0.87712929   -0.40242628
 H   +3.44166586   -2.61922349   -0.92303672
22
 * E =  +8.604 kcal/mol ; (17) 003_187_069_116_095
 C   +0.00000000   +0.00000000   +0.00000000
 O   +0.00000000   +0.00000000   +1.40908316
 C   +1.14229668   +0.00000000   +2.10543661
 C   +2.43407667   +0.06890404   +1.33558945
 C   +3.64933498   -0.10311018   +2.23377091
 C   +3.76194050   -1.48391399   +2.78375143
 C   +4.74622365   -2.35778025   +2.54686469
 C   +5.93428683   -2.14303548   +1.72515504
 O   +1.09089810   -0.02875417   +3.30068244
 H   +6.88534964   -1.76914870   +2.45706554
 H   +0.40116472   -0.92964410   -0.39719462
 H   +6.34388702   -3.04449461   +1.28315968
 H   +5.87719671   -1.34073499   +0.99871324
 H   +4.68396476   -3.31732344   +3.04287053
 H   +2.95489316   -1.78555739   +3.43702225
 H   +4.53902122   +0.16839057   +1.67250513
 H   +3.56240503   +0.59916408   +3.06200119
 H   +2.43434457   -0.68074125   +0.54558952
 H   +2.46724380   +1.03877875   +0.83597226
 H   -1.03828152   +0.08976152   -0.29387218
 H   +0.55665894   +0.84192672   -0.40441844
 H   +7.69366756   -1.44108239   +2.98720284
22
 * E =  +8.667 kcal/mol ; (18) 001_180_177_122_096
 C   +0.00000000   +0.00000000   +0.00000000
 O   +0.00000000   +0.00000000   +1.40870968
 C   +1.14397818   +0.00000000   +2.10448778
 C   +2.43435669   +0.01307861   +1.33190968
 C   +3.64104121   +0.01651093   +2.25236433
 C   +4.91558446   -0.03674365   +1.48450278
 C   +5.91804533   +0.84722670   +1.52302757
 C   +5.99707192   +2.04550690   +2.35284805
 O   +1.09531727   -0.00781723   +3.29956339
 H   +6.64260988   +1.77878323   +3.39967531
 H   +0.48038285   -0.88938312   -0.40134471
 H   +6.59299922   +2.84680934   +1.93055499
 H   +5.05995258   +2.41550328   +2.75135922
 H   +6.78355127   +0.64148508   +0.90716644
 H   +5.02890621   -0.88902575   +0.82474183
 H   +3.59448965   +0.88559154   +2.90104710
 H   +3.57088110   -0.84688959   +2.91390549
 H   +2.45960235   -0.85307579   +0.66898960
 H   +2.45178132   +0.88543941   +0.67810320
 H   -1.04204625   +0.00051453   -0.29410684
 H   +0.48178516   +0.88826961   -0.40192268
 H   +7.13878753   +1.62519545   +4.27443284
22
 * E =  +8.991 kcal/mol ; (19) 358_166_285_112_256
 C   +0.00000000   +0.00000000   +0.00000000
 O   +0.00000000   +0.00000000   +1.40864550
 C   +1.14249596   +0.00000000   +2.10523892
 C   +2.43898205   -0.05516982   +1.34043341
 C   +3.62587366   +0.28151915   +2.22958801
 C   +3.71257441   +1.74371090   +2.51122853
 C   +3.51872780   +2.35993437   +3.68168885
 C   +3.13237449   +1.75653993   +4.95068501
 O   +1.09093692   +0.00541701   +3.30009400
 H   +1.90646726   +2.00529193   +5.14616868
 H   +0.58328641   -0.82352182   -0.40510303
 H   +3.14712783   +0.67574330   +4.99590904
 H   +3.58456266   +2.21622927   +5.82294244
 H   +3.63164395   +3.43676451   +3.69047306
 H   +3.96851766   +2.36316985   +1.65940446
 H   +3.54979549   -0.29295965   +3.14750100
 H   +4.53455048   -0.03607371   +1.71797193
 H   +2.53293647   -1.06523968   +0.93646614
 H   +2.40313007   +0.61262935   +0.48146041
 H   -1.03496833   -0.12314944   -0.29393584
 H   +0.36997451   +0.94264498   -0.39713742
 H   +0.94394275   +2.17735961   +5.36197918
22
 * E =  +9.971 kcal/mol ; (20) 006_091_179_095_277
 C   +0.00000000   +0.00000000   +0.00000000
 O   +0.00000000   +0.00000000   +1.40990016
 C   +1.14081358   +0.00000000   +2.11029212
 C   +2.44320907   +0.14479305   +1.37179810
 C   +2.82950704   +1.62622629   +1.27081080
 C   +4.13180785   +1.79008754   +0.56531484
 C   +4.28177635   +2.03828500   -0.73969293
 C   +3.19684240   +2.20952515   -1.70390050
 O   +1.08651746   -0.05819691   +3.30445184
 H   +2.81136283   +1.08482062   -2.09184369
 H   +0.40183154   -0.92902615   -0.39729161
 H   +2.27867797   +2.63497914   -1.31241768
 H   +3.48420503   +2.68988852   -2.63176822
 H   +5.28800536   +2.07338614   -1.13397734
 H   +5.02246132   +1.65207833   +1.16382051
 H   +2.04180907   +2.17657188   +0.75840803
 H   +2.89049831   +2.03170969   +2.27858872
 H   +3.19041487   -0.38488449   +1.95417004
 H   +2.41557699   -0.29588901   +0.37904467
 H   -1.03854545   +0.09043806   -0.29339442
 H   +0.55791204   +0.83973255   -0.40769256
 H   +2.42527142   +0.18060384   -2.40536829
22
 * E = +10.635 kcal/mol ; (21) 006_091_179_243_265
 C   +0.00000000   +0.00000000   +0.00000000
 O   +0.00000000   +0.00000000   +1.40882675
 C   +1.13973889   +0.00000000   +2.11207884
 C   +2.44705913   +0.13567136   +1.38078455
 C   +2.83761926   +1.61190117   +1.26013820
 C   +4.13659016   +1.77737484   +0.55089257
 C   +5.26253429   +2.29263325   +1.05451410
 C   +5.45288294   +2.83533035   +2.39607746
 O   +1.08001923   -0.05436259   +3.30598933
 H   +5.28231393   +4.08186720   +2.36262172
 H   +0.39167389   -0.93438850   -0.39564081
 H   +4.73575925   +2.52444993   +3.14637744
 H   +6.46881342   +2.76589251   +2.76768020
 H   +6.11842138   +2.34879198   +0.39510817
 H   +4.15874605   +1.42704022   -0.47391508
 H   +2.06126814   +2.15209856   +0.71447101
 H   +2.86807071   +2.04602313   +2.25522923
 H   +3.19041657   -0.38136308   +1.97847105
 H   +2.42411104   -0.32873010   +0.39824123
 H   -1.03774122   +0.09864605   -0.29366347
 H   +0.56269240   +0.83682397   -0.40683400
 H   +5.13701038   +5.08726553   +2.40647103
22
 * E = +10.644 kcal/mol ; (22) 006_091_175_122_095
 C   +0.00000000   +0.00000000   +0.00000000
 O   +0.00000000   +0.00000000   +1.40878899
 C   +1.13980799   +0.00000000   +2.11174585
 C   +2.44671286   +0.12834619   +1.37810958
 C   +2.84953628   +1.60140478   +1.26305103
 C   +4.19516168   +1.74912403   +0.64410275
 C   +4.50451910   +2.43475893   -0.46111511
 C   +3.59629952   +3.22117063   -1.29012217
 O   +1.08099404   -0.04851886   +3.30582816
 H   +3.64813881   +4.42664961   -0.93199570
 H   +0.38745540   -0.93584377   -0.39608962
 H   +3.88668383   +3.29270490   -2.33217641
 H   +2.54000507   +3.00062514   -1.18926669
 H   +5.54407601   +2.44554236   -0.76024466
 H   +4.99756317   +1.23186560   +1.15553032
 H   +2.09852155   +2.15819280   +0.70685391
 H   +2.86265496   +2.02303951   +2.26860332
 H   +3.18360071   -0.39977500   +1.97558832
 H   +2.42266079   -0.32951739   +0.39348706
 H   -1.03717749   +0.10431603   -0.29368241
 H   +0.56775463   +0.83362841   -0.40660574
 H   +3.62524714   +5.41181765   -0.67952639
22
 * E = +11.162 kcal/mol ; (23) 009_086_065_135_093
 C   +0.00000000   +0.00000000   +0.00000000
 O   +0.00000000   +0.00000000   +1.40914633
 C   +1.13828731   +0.00000000   +2.11600360
 C   +2.43855862   +0.20649985   +1.38955635
 C   +2.74914171   +1.69926308   +1.21892487
 C   +2.98379802   +2.39318333   +2.51751702
 C   +3.96695764   +3.25891749   +2.78407926
 C   +4.99971391   +3.72713362   +1.86499702
 O   +1.07362737   -0.10873550   +3.30650540
 H   +4.62178352   +4.79635274   +1.32450253
 H   +0.41180011   -0.92627020   -0.39446264
 H   +5.92085269   +4.03880774   +2.34428084
 H   +5.19781935   +3.09892713   +1.00394702
 H   +3.98519985   +3.69124469   +3.77538590
 H   +2.28551068   +2.15899732   +3.30978249
 H   +3.61264750   +1.79591577   +0.56590163
 H   +1.92066034   +2.18553458   +0.69841642
 H   +3.20879056   -0.25646296   +1.99766558
 H   +2.43455419   -0.28072717   +0.41846227
 H   -1.03988415   +0.07490424   -0.29312580
 H   +0.54391600   +0.84759183   -0.40907233
 H   +4.36837741   +5.65285069   +0.82878065
22
 * E = +11.283 kcal/mol ; (24) 351_274_294_228_093
 C   +0.00000000   +0.00000000   +0.00000000
 O   +0.00000000   +0.00000000   +1.40901795
 C   +1.13851811   +0.00000000   +2.11599158
 C   +2.43908123   -0.19953865   +1.38812073
 C   +2.75967357   -1.69188147   +1.22631077
 C   +3.01768724   -2.36482307   +2.53217130
 C   +4.04953420   -3.16560994   +2.81519201
 C   +5.14129804   -3.54058573   +1.92021288
 O   +1.07321962   +0.10263633   +3.30688245
 H   +6.10415837   -2.75045743   +2.08354645
 H   +0.54610114   -0.84640732   -0.40882472
 H   +5.60198589   -4.49444366   +2.15091891
 H   +4.94594965   -3.44924564   +0.85818647
 H   +4.10689961   -3.55744932   +3.82169465
 H   +2.29571088   -2.17019560   +3.31373700
 H   +1.92706980   -2.18773960   +0.72124319
 H   +3.61906743   -1.78192812   +0.56780671
 H   +2.42930077   +0.28118681   +0.41391844
 H   +3.20787714   +0.27189190   +1.99144351
 H   -1.03971935   -0.07745207   -0.29315863
 H   +0.40959782   +0.92709212   -0.39479802
 H   +6.91350778   -2.12929391   +2.14691854
22
 * E = +11.331 kcal/mol ; (25) 345_280_293_103_094
 C   +0.00000000   +0.00000000   +0.00000000
 O   +0.00000000   +0.00000000   +1.40902188
 C   +1.14449235   +0.00000000   +2.11425656
 C   +2.41817358   -0.35047779   +1.39745496
 C   +2.55778573   -1.87372151   +1.25019097
 C   +2.73981217   -2.56440458   +2.55914771
 C   +1.80491386   -3.25007671   +3.22225606
 C   +0.42578809   -3.46650778   +2.79601235
 O   +1.09372853   +0.20984662   +3.28968807
 H   +0.34227987   -4.56281359   +2.18267674
 H   +0.50157144   -0.87188092   -0.41266504
 H   -0.27299166   -3.61640957   +3.61063879
 H   +0.03166873   -2.75902315   +2.07541849
 H   +2.09148803   -3.70297427   +4.16147030
 H   +3.71669859   -2.46555132   +3.01363751
 H   +1.69745718   -2.27984401   +0.72218628
 H   +3.42416044   -2.06686432   +0.61905851
 H   +2.47004634   +0.12146704   +0.41941608
 H   +3.23082316   +0.03679361   +2.00336225
 H   -1.04221239   -0.02249320   -0.29387609
 H   +0.45719319   +0.90517704   -0.39375237
 H   +0.20880486   -5.42664790   +1.66011177
