22
 * E =  +0.000 kcal/mol ; (1) 180_218_070_253
 C   +0.00000000   +0.00000000   +0.00000000
 C   +0.00000000   +0.00000000   +1.49865996
 O   +1.22568426   +0.00000000   +2.00751801
 O   -0.99250453   -0.01846207   +2.17752220
 C   +1.29294292   +0.00582294   +3.42336218
 H   +2.34676049   +0.01260841   +3.66929758
 H   +0.80151212   +0.89093834   +3.81514758
 H   +0.80947503   -0.87715169   +3.82939770
 C   -1.12304241   +0.87510012   -0.54349113
 C   -0.85442080   +2.32039580   -0.29923278
 C   -1.47270295   +3.11357497   +0.59194843
 C   -2.68073814   +2.76748592   +1.39917707
 H   -0.13995100   -1.03357639   -0.31709473
 H   -1.20913384   +0.69959804   -1.61551763
 H   -0.02840231   +2.74458161   -0.85722505
 H   -1.17495375   +4.15418280   +0.60700978
 H   -2.67488481   +3.30196359   +2.34481653
 H   -3.58437218   +3.06278822   +0.86538146
 H   -2.73513535   +1.70705236   +1.61955159
 H   +0.97334212   +0.32071842   -0.36074304
 H   -2.05934329   +0.56544466   -0.08792291
 H   -0.17725441   +2.93807617   +2.10064216
22
 * E =  +0.545 kcal/mol ; (2) 178_160_290_116
 C   +0.00000000   +0.00000000   +0.00000000
 C   +0.00000000   +0.00000000   +1.49795356
 O   +1.23431536   +0.00000000   +1.99396713
 O   -0.98232664   +0.02690843   +2.18920570
 C   +1.32122704   +0.05284026   +3.40712621
 H   +2.37820035   +0.04932973   +3.63929528
 H   +0.85011431   +0.95604128   +3.78222565
 H   +0.82997620   -0.80867584   +3.84819594
 C   -1.32211764   -0.49011680   -0.56799237
 C   -1.52003933   -1.94715731   -0.33063571
 C   -2.47789638   -2.52325694   +0.41453910
 C   -3.45760728   -1.83470782   +1.30472778
 H   +0.83954624   -0.59610046   -0.35044908
 H   -2.12827286   +0.08994340   -0.12928133
 H   -0.82925996   -2.60213291   -0.84838467
 H   -2.43038008   -3.59977025   +0.51908841
 H   -4.41301683   -2.35233131   +1.30071946
 H   -3.08096894   -1.82977666   +2.32624637
 H   -3.62536392   -0.80107553   +1.02353435
 H   +0.19917178   +1.02522538   -0.31423462
 H   -1.32607889   -0.29532394   -1.64102212
 H   -3.77334918   -2.92675734   -1.03872944
22
 * E =  +0.584 kcal/mol ; (3) 179_170_293_254
 C   +0.00000000   +0.00000000   +0.00000000
 C   +0.00000000   +0.00000000   +1.49763455
 O   +1.23548903   +0.00000000   +1.98901096
 O   -0.98017069   +0.01775800   +2.19319917
 C   +1.32796565   +0.02673241   +3.40260037
 H   +2.38588509   +0.01967580   +3.63016991
 H   +0.85782903   +0.92245412   +3.79633536
 H   +0.83927229   -0.84328137   +3.82963079
 C   -1.38425476   -0.23557929   -0.58615531
 C   -1.88416424   -1.60957072   -0.30037419
 C   -1.96748481   -2.62637291   -1.17385150
 C   -1.77193906   -2.55489909   -2.65347015
 H   +0.70869340   -0.75128400   -0.34290434
 H   -2.07043517   +0.49024952   -0.15137693
 H   -2.13212224   -1.80531097   +0.73382770
 H   -2.37737550   -3.55723003   -0.80404952
 H   -1.31979039   -3.46915056   -3.02773726
 H   -2.73339744   -2.44120401   -3.15420602
 H   -1.13919140   -1.72580166   -2.95365474
 H   +0.39728241   +0.96474932   -0.31633108
 H   -1.34775907   -0.04552428   -1.65509634
 H   -0.18198148   -3.44837685   -0.79759966
22
 * E =  +0.720 kcal/mol ; (4) 180_181_183_246
 C   +0.00000000   +0.00000000   +0.00000000
 C   +0.00000000   +0.00000000   +1.49643929
 O   +1.23700465   +0.00000000   +1.98742035
 O   -0.97944409   -0.00101315   +2.19212311
 C   +1.32961056   -0.00075722   +3.40116000
 H   +2.38762507   +0.00279949   +3.62859557
 H   +0.84710508   +0.88020378   +3.81272056
 H   +0.85333904   -0.88564923   +3.81164511
 C   -1.40375300   +0.02896519   -0.57842389
 C   -1.37658757   -0.04358073   -2.06407035
 C   -1.75985872   +0.91117148   -2.92753555
 C   -2.47549541   +2.17962182   -2.59517377
 H   +0.54792228   -0.88171390   -0.33216654
 H   -1.96169486   -0.81693381   -0.17647068
 H   -0.94135598   -0.94368312   -2.48153618
 H   -1.70379416   +0.67052212   -3.98113820
 H   -2.17185522   +2.98077225   -3.26305728
 H   -3.55015915   +2.04541203   -2.71681512
 H   -2.29473597   +2.50783757   -1.57687599
 H   +0.58381760   +0.85376303   -0.34114941
 H   -1.92014263   +0.91784805   -0.22900519
 H   +0.01591047   +1.77152127   -3.20405875
22
 * E =  +0.815 kcal/mol ; (5) 180_042_063_246
 C   +0.00000000   +0.00000000   +0.00000000
 C   +0.00000000   +0.00000000   +1.49906120
 O   +1.23487585   +0.00000000   +1.99829399
 O   -0.98216335   +0.03005629   +2.18861888
 C   +1.31355523   +0.00461616   +3.41278326
 H   +2.36922548   -0.00671289   +3.65191206
 H   +0.83955281   +0.89450005   +3.81512725
 H   +0.82006919   -0.87387641   +3.81647464
 C   +1.03793073   -0.93352757   -0.61326131
 C   +0.78212753   -2.35679505   -0.25665318
 C   +1.55250865   -3.14511752   +0.51087286
 C   +2.91326239   -2.81854643   +1.03290196
 H   +0.18767645   +1.02450434   -0.32208847
 H   +0.99200323   -0.82130867   -1.69708720
 H   -0.15472211   -2.76783689   -0.61259591
 H   +1.23819267   -4.17416466   +0.62683174
 H   +3.08034027   -3.29483760   +1.99507794
 H   +3.67754839   -3.19110855   +0.35081184
 H   +3.05812203   -1.75077389   +1.15835329
 H   -1.00670812   -0.25889139   -0.31417417
 H   +2.03106359   -0.62275621   -0.30392040
 H   +0.61164501   -2.91093371   +2.25750169
22
 * E =  +1.001 kcal/mol ; (6) 182_190_066_116
 C   +0.00000000   +0.00000000   +0.00000000
 C   +0.00000000   +0.00000000   +1.49778171
 O   +1.23637790   +0.00000000   +1.98856584
 O   -0.97922637   -0.01900444   +2.19406374
 C   +1.32932674   -0.03613785   +3.40203831
 H   +2.38727696   -0.02802252   +3.62946156
 H   +0.83821956   +0.82933575   +3.83548541
 H   +0.86169102   -0.93583080   +3.78958375
 C   -1.37777270   +0.25509466   -0.59060737
 C   -1.87842311   +1.62853487   -0.30503324
 C   -2.14282913   +2.59143039   -1.20354626
 C   -1.83462024   +2.56692813   -2.66570229
 H   +0.37884778   -0.97340167   -0.31298232
 H   -1.33421326   +0.06975867   -1.65998997
 H   -2.08803021   +1.83532332   +0.73560289
 H   -2.45374968   +3.55154898   -0.81265817
 H   -2.59792063   +3.09399009   -3.23127162
 H   -0.88641012   +3.06934942   -2.85716483
 H   -1.76415045   +1.56006315   -3.06436458
 H   +0.72633525   +0.73341791   -0.34357179
 H   -2.07184209   -0.46888001   -0.16314801
 H   -4.09499242   +2.27445310   -1.43171907
22
 * E =  +1.086 kcal/mol ; (7) 180_180_177_127
 C   +0.00000000   +0.00000000   +0.00000000
 C   +0.00000000   +0.00000000   +1.49672846
 O   +1.23778118   +0.00000000   +1.98645520
 O   -0.97868866   -0.00029195   +2.19298550
 C   +1.33195523   -0.00007796   +3.40015411
 H   +2.39023364   +0.00141029   +3.62640998
 H   +0.85176608   +0.88204334   +3.81194350
 H   +0.85449036   -0.88384333   +3.81161049
 C   -1.40209205   -0.01029866   -0.57971132
 C   -1.38031905   +0.07078219   -2.06515138
 C   -1.98415795   -0.75774734   -2.93256541
 C   -2.66955867   -2.04562416   -2.60974671
 H   +0.57447208   -0.86185979   -0.33678024
 H   -1.92675482   -0.89532428   -0.23320452
 H   -0.85776576   +0.92529206   -2.47867404
 H   -1.81765818   -0.57050775   -3.98532669
 H   -3.51626755   -2.20842300   -3.27058670
 H   -1.98384477   -2.88090437   -2.75168622
 H   -3.03488510   -2.08146157   -1.58891826
 H   +0.56040144   +0.87410782   -0.33147995
 H   -1.94936314   +0.84193597   -0.17358193
 H   -3.66054749   +0.27367473   -3.22355209
22
 * E =  +1.472 kcal/mol ; (8) 181_320_298_118
 C   +0.00000000   +0.00000000   +0.00000000
 C   +0.00000000   +0.00000000   +1.49867286
 O   +1.23511081   +0.00000000   +1.99745827
 O   -0.98112846   -0.02378164   +2.19041190
 C   +1.31832625   -0.01166252   +3.41071646
 H   +2.37461254   +0.01283446   +3.64648814
 H   +0.81241006   +0.85482502   +3.82529496
 H   +0.85870462   -0.91008185   +3.81077498
 C   +1.06233262   +0.90671267   -0.61104963
 C   +0.85232079   +2.33290267   -0.23829361
 C   +1.68563814   +3.12001428   +0.46360916
 C   +2.92717501   +2.70150915   +1.17985511
 H   -0.99992272   +0.28434297   -0.31394447
 H   +2.04529181   +0.56127388   -0.30722888
 H   -0.06074283   +2.78243553   -0.60922145
 H   +1.33785538   +4.12032602   +0.68725735
 H   +3.71554742   +3.43905450   +1.05554787
 H   +2.72352682   +2.62171900   +2.24753636
 H   +3.30136246   +1.74037786   +0.84493284
 H   +0.16005798   -1.02905004   -0.32259112
 H   +1.00703535   +0.80661571   -1.69588867
 H   +2.59851065   +3.99468837   -1.04883004
22
 * E =  +1.773 kcal/mol ; (9) 181_309_182_248
 C   +0.00000000   +0.00000000   +0.00000000
 C   +0.00000000   +0.00000000   +1.49659501
 O   +1.23664518   +0.00000000   +1.99352064
 O   -0.97896685   -0.00999773   +2.19238162
 C   +1.32265797   -0.02169699   +3.40737113
 H   +2.37949858   -0.02040648   +3.64053596
 H   +0.83665080   +0.85216068   +3.82969687
 H   +0.84498239   -0.91307540   +3.80175537
 C   +0.89004127   +1.08326271   -0.60639828
 C   +0.81666172   +1.06447550   -2.09252745
 C   +1.79746572   +0.71541136   -2.94100202
 C   +3.22815053   +0.46064282   -2.59444336
 H   -1.03144171   +0.10997183   -0.31979150
 H   +0.55645930   +2.05664916   -0.24291339
 H   -0.15321022   +1.29153259   -2.51768194
 H   +1.57952783   +0.78818313   -3.99850196
 H   +3.65084409   -0.30450263   -3.23930021
 H   +3.81530716   +1.36732406   -2.73943704
 H   +3.35904050   +0.13883377   -1.56644441
 H   +0.34751039   -0.97709829   -0.33488135
 H   +1.90786710   +0.95065474   -0.25427121
 H   +1.31989297   -1.20944068   -3.14703856
22
 * E =  +1.818 kcal/mol ; (10) 180_055_183_249
 C   +0.00000000   +0.00000000   +0.00000000
 C   +0.00000000   +0.00000000   +1.49656782
 O   +1.23767276   +0.00000000   +1.99159761
 O   -0.97788027   +0.00414200   +2.19374340
 C   +1.32606955   +0.01031108   +3.40533646
 H   +2.38326695   +0.00706005   +3.63684887
 H   +0.84908203   +0.89853714   +3.80768890
 H   +0.84043366   -0.86676556   +3.82142644
 C   +0.81033095   -1.15029511   -0.59645661
 C   +0.84266916   -1.06904665   -2.08158028
 C   +0.25074769   -1.90582359   -2.94928917
 C   -0.41115137   -3.20522865   -2.62437114
 H   +0.41999501   +0.94929895   -0.33258871
 H   +1.82543206   -1.09678520   -0.20460720
 H   +1.34636171   -0.20134768   -2.49000390
 H   +0.41207159   -1.71455035   -4.00207929
 H   -1.24040846   -3.39480453   -3.29977346
 H   +0.29630705   -4.02608072   -2.74076615
 H   -0.79606764   -3.23689018   -1.61026017
 H   -1.03332119   -0.04070276   -0.32775150
 H   +0.39487176   -2.09863753   -0.26490914
 H   -1.44955631   -0.90204172   -3.21306407
22
 * E =  +1.941 kcal/mol ; (11) 182_330_298_248
 C   +0.00000000   +0.00000000   +0.00000000
 C   +0.00000000   +0.00000000   +1.49947114
 O   +1.23058881   +0.00000000   +2.01157011
 O   -0.98641095   -0.03476657   +2.18289742
 C   +1.29738324   -0.05091104   +3.42597188
 H   +2.35074085   -0.03671058   +3.67406438
 H   +0.78960978   +0.80488035   +3.85952855
 H   +0.82945720   -0.95858269   +3.79395764
 C   +1.18702315   +0.69685661   -0.65518213
 C   +1.24662758   +2.14576051   -0.31782952
 C   +1.04959432   +3.17684681   -1.15559946
 C   +0.92049775   +3.10930799   -2.64273654
 H   -0.94105864   +0.44337487   -0.31172606
 H   +2.10407047   +0.21216986   -0.32225704
 H   +1.40800841   +2.37397779   +0.72814038
 H   +1.16652679   +4.17090531   -0.74421989
 H   +0.24687022   +3.87980262   -3.00678154
 H   +1.88993520   +3.27837202   -3.11129707
 H   +0.54554227   +2.15144187   -2.98855978
 H   -0.02621061   -1.04767419   -0.30237843
 H   +1.12263627   +0.54968344   -1.72960255
 H   -0.89403261   +3.46818890   -0.82677112
22
 * E =  +2.067 kcal/mol ; (12) 178_035_060_120
 C   +0.00000000   +0.00000000   +0.00000000
 C   +0.00000000   +0.00000000   +1.49927014
 O   +1.23194971   +0.00000000   +2.00684763
 O   -0.98486974   +0.03078521   +2.18550587
 C   +1.30511212   +0.04734454   +3.42105225
 H   +2.35953486   +0.03178300   +3.66425276
 H   +0.83948234   +0.95442745   +3.79339376
 H   +0.79891328   -0.80928914   +3.85480898
 C   +1.13179702   -0.79077678   -0.64601414
 C   +1.10460378   -2.23160452   -0.27243123
 C   +0.97257627   -3.28117073   -1.09968798
 C   +0.65263838   -3.23899051   -2.55849925
 H   +0.06158010   +1.04494189   -0.30650424
 H   +1.06435123   -0.66574754   -1.72288590
 H   +1.25389593   -2.44119866   +0.77945407
 H   +0.92099552   -4.26047447   -0.64215505
 H   +1.15364252   -4.04451303   -3.08788322
 H   -0.41874841   -3.37010261   -2.70949892
 H   +0.94383766   -2.30425030   -3.02629310
 H   -0.97244861   -0.36796544   -0.31201469
 H   +2.08133454   -0.35814700   -0.33089219
 H   +2.89925952   -3.71747426   -1.35129553
22
 * E =  +2.080 kcal/mol ; (13) 181_307_177_122
 C   +0.00000000   +0.00000000   +0.00000000
 C   +0.00000000   +0.00000000   +1.49699920
 O   +1.23623814   +0.00000000   +1.99375194
 O   -0.97960452   -0.00794191   +2.19192311
 C   +1.32293808   -0.01434516   +3.40771055
 H   +2.37986733   -0.01291050   +3.64027928
 H   +0.83800084   +0.86233400   +3.82537362
 H   +0.84426117   -0.90307035   +3.80688461
 C   +0.84596109   +1.11882916   -0.60283083
 C   +0.87830547   +1.03272590   -2.08763766
 C   +0.49180184   +1.97305519   -2.96501732
 C   -0.22011444   +3.24954370   -2.65518915
 H   -1.03309920   +0.07098376   -0.32318842
 H   +0.46002935   +2.08045862   -0.27457639
 H   +1.30304434   +0.12100683   -2.49029045
 H   +0.54102915   +1.71192472   -4.01402540
 H   +0.08764442   +4.03858168   -3.33542148
 H   -1.29477688   +3.11684476   -2.77857545
 H   -0.04089266   +3.59643188   -1.64300053
 H   +0.38655934   -0.96481155   -0.32939455
 H   +1.85960827   +1.03299551   -0.21082366
 H   +2.25745527   +2.82631368   -3.29698270
22
 * E =  +2.093 kcal/mol ; (14) 179_046_177_124
 C   +0.00000000   +0.00000000   +0.00000000
 C   +0.00000000   +0.00000000   +1.49731421
 O   +1.23488242   +0.00000000   +1.99720014
 O   -0.98100600   +0.01670581   +2.19000323
 C   +1.31695490   +0.02682592   +3.41138276
 H   +2.37309858   +0.02131045   +3.64749477
 H   +0.84218692   +0.92193544   +3.80081079
 H   +0.82543497   -0.84313453   +3.83524357
 C   +0.96799784   -1.00408960   -0.61710317
 C   +0.86927546   -1.00941101   -2.10189433
 C   +1.86439152   -0.80307346   -2.97995846
 C   +3.25467174   -0.35344342   -2.66842376
 H   +0.26358669   +1.00585631   -0.32704491
 H   +1.97587625   -0.78078114   -0.28347464
 H   -0.10706240   -1.25073769   -2.50429908
 H   +1.59681627   -0.79271165   -4.02848559
 H   +3.96939793   -0.80798034   -3.34861349
 H   +3.33397046   +0.72664617   -2.79085145
 H   +3.55800880   -0.59809469   -1.65596694
 H   -1.02183639   -0.18604736   -0.31631149
 H   +0.72557247   -2.00055270   -0.24097878
 H   +2.35766170   -2.69675182   -3.32987949
22
 * E =  +8.415 kcal/mol ; (15) 357_172_291_255
 C   +0.00000000   +0.00000000   +0.00000000
 C   +0.00000000   +0.00000000   +1.50537484
 O   +1.18217209   +0.00000000   +2.13016590
 O   -1.00120239   +0.02683916   +2.16092380
 C   +2.39156884   -0.07030518   +1.40979794
 H   +3.17834121   +0.03370996   +2.14643408
 H   +2.49952472   -1.02951553   +0.90888077
 H   +2.47725131   +0.73491354   +0.68410170
 C   -1.39743991   -0.19933436   -0.57007624
 C   -1.90497724   -1.57493262   -0.30681119
 C   -1.99670558   -2.57332587   -1.20049165
 C   -1.81427998   -2.47374739   -2.68002757
 H   +0.67152020   -0.77264669   -0.37161075
 H   -2.06447315   +0.52450888   -0.10510095
 H   -2.14511289   -1.78948332   +0.72519216
 H   -2.40222149   -3.51171857   -0.84522341
 H   -1.35664697   -3.37674698   -3.07452353
 H   -2.78142905   -2.36156370   -3.16989699
 H   -1.19346416   -1.63259174   -2.97166780
 H   +0.41472843   +0.95442966   -0.32944673
 H   -1.37305364   +0.01333716   -1.63512586
 H   -0.19292633   -3.37860830   -0.85355804
22
 * E =  +8.519 kcal/mol ; (16) 001_182_182_252
 C   +0.00000000   +0.00000000   +0.00000000
 C   +0.00000000   +0.00000000   +1.50361927
 O   +1.18437987   +0.00000000   +2.12759726
 O   -1.00069306   -0.00186714   +2.15931689
 C   +2.39280857   +0.01068436   +1.40297309
 H   +3.18070595   -0.00042699   +2.14557912
 H   +2.49030434   -0.86875558   +0.77073952
 H   +2.48940828   +0.90856439   +0.79720135
 C   -1.41099108   +0.03866368   -0.56258486
 C   -1.39187917   -0.01066791   -2.04961747
 C   -1.67050136   +0.99832195   -2.89134374
 C   -2.25562034   +2.32434360   -2.53059905
 H   +0.53021730   -0.88571702   -0.35331526
 H   -1.96584067   -0.80993538   -0.16496095
 H   -1.04565990   -0.93969579   -2.48637038
 H   -1.62859818   +0.78011919   -3.95050941
 H   -1.85859762   +3.10826381   -3.16933298
 H   -3.33588056   +2.30651386   -2.67308070
 H   -2.06060482   +2.60243873   -1.50013291
 H   +0.57453749   +0.85154340   -0.36513418
 H   -1.91800935   +0.92434808   -0.19289073
 H   +0.19688894   +1.67405848   -3.10135864
22
 * E =  +8.723 kcal/mol ; (17) 358_169_287_117
 C   +0.00000000   +0.00000000   +0.00000000
 C   +0.00000000   +0.00000000   +1.50597444
 O   +1.18217683   +0.00000000   +2.13356910
 O   -1.00076089   +0.03259357   +2.16044375
 C   +2.39400268   -0.04539614   +1.41654245
 H   +3.17686779   +0.08098638   +2.15396591
 H   +2.52700811   -1.00461974   +0.92120936
 H   +2.46265414   +0.75730522   +0.68625926
 C   -1.38637266   -0.27170829   -0.56209037
 C   -1.78837099   -1.69450671   -0.38150637
 C   -2.81568651   -2.15912596   +0.34802037
 C   -3.68002146   -1.37847727   +1.27951181
 H   +0.71441084   -0.73131902   -0.37538364
 H   -2.09649910   +0.39788131   -0.08765632
 H   -1.20357655   -2.41796069   -0.93777373
 H   -2.92426046   -3.23490357   +0.40221883
 H   -4.69665181   -1.76197308   +1.27535066
 H   -3.28846795   -1.46236392   +2.29178281
 H   -3.70901432   -0.32170423   +1.03868421
 H   +0.36499195   +0.97516672   -0.32802608
 H   -1.37202230   -0.03523764   -1.62686859
 H   -4.16374724   -2.29430397   -1.11441847
22
 * E =  +9.062 kcal/mol ; (18) 002_187_068_115
 C   +0.00000000   +0.00000000   +0.00000000
 C   +0.00000000   +0.00000000   +1.50530364
 O   +1.18367901   +0.00000000   +2.12939009
 O   -0.99973519   -0.02399717   +2.16241211
 C   +2.39309176   +0.04839383   +1.40821260
 H   +3.17937094   -0.05337617   +2.14570526
 H   +2.47050106   -0.76711099   +0.69321658
 H   +2.51156653   +0.99938378   +0.89383497
 C   -1.39879538   +0.16108045   -0.57601050
 C   -1.97114828   +1.51220433   -0.31917348
 C   -2.28567391   +2.43740560   -1.24117629
 C   -1.97316590   +2.39669364   -2.70224479
 H   +0.43753956   -0.94414557   -0.32949324
 H   -1.35737532   -0.04852865   -1.64111739
 H   -2.19238814   +1.72981339   +0.71637873
 H   -2.64945222   +3.38788071   -0.87302389
 H   -2.76494080   +2.86413864   -3.28087712
 H   -1.05634653   +2.95045898   -2.90510319
 H   -1.84235609   +1.38681215   -3.07744688
 H   +0.65808700   +0.78544728   -0.36884286
 H   -2.04298540   -0.58899042   -0.11811885
 H   -4.21207551   +2.00459381   -1.46659260
22
 * E =  +9.075 kcal/mol ; (19) 001_181_177_125
 C   +0.00000000   +0.00000000   +0.00000000
 C   +0.00000000   +0.00000000   +1.50404807
 O   +1.18508202   +0.00000000   +2.12755801
 O   -0.99996124   -0.00345764   +2.16023418
 C   +2.39301649   +0.01608713   +1.40300207
 H   +3.18135150   -0.00290121   +2.14499589
 H   +2.48936069   -0.85688457   +0.76171450
 H   +2.49069620   +0.92021269   +0.80638833
 C   -1.40973297   +0.01631202   -0.56237341
 C   -1.40389440   +0.08393123   -2.04865323
 C   -2.00304852   -0.76323890   -2.90174955
 C   -2.66123914   -2.06046693   -2.56019944
 H   +0.54284376   -0.87593968   -0.35636268
 H   -1.94652113   -0.85366259   -0.19828218
 H   -0.90175523   +0.94376102   -2.47648178
 H   -1.85123284   -0.58294822   -3.95799047
 H   -3.51510789   -2.24203224   -3.20669306
 H   -1.96349096   -2.88459862   -2.70850336
 H   -3.00962663   -2.09693214   -1.53354825
 H   +0.56592384   +0.86235986   -0.35520109
 H   -1.93151682   +0.88244410   -0.15371996
 H   -3.69622714   +0.23265861   -3.18112972
22
 * E = +10.485 kcal/mol ; (20) 354_269_182_248
 C   +0.00000000   +0.00000000   +0.00000000
 C   +0.00000000   +0.00000000   +1.50342635
 O   +1.17327046   +0.00000000   +2.14903385
 O   -1.01029223   +0.05590949   +2.14242662
 C   +2.39632181   -0.12142907   +1.45959106
 H   +3.16879735   +0.00925218   +2.20730242
 H   +2.50147506   -1.10590699   +1.00982515
 H   +2.51079661   +0.64385062   +0.69533204
 C   -0.03276957   +1.43941033   -0.52808732
 C   -0.08084808   +1.45422269   -2.01411700
 C   +0.88575394   +1.87392043   -2.84656903
 C   +2.12955884   +2.61332554   -2.47551075
 H   -0.90370656   -0.51700028   -0.30753635
 H   -0.91909387   +1.92577840   -0.12108376
 H   -0.96168788   +1.00549009   -2.45604510
 H   +0.67250189   +1.82729638   -3.90639534
 H   +2.95288238   +2.33582471   -3.12741505
 H   +1.97408897   +3.68596797   -2.58813550
 H   +2.43962528   +2.42933121   -1.45166918
 H   +0.84988096   -0.52817048   -0.42244297
 H   +0.82446170   +1.99713856   -0.15812782
 H   +1.79994694   +0.11467191   -3.08636196
22
 * E = +10.680 kcal/mol ; (21) 005_092_177_273
 C   +0.00000000   +0.00000000   +0.00000000
 C   +0.00000000   +0.00000000   +1.50333901
 O   +1.17068697   +0.00000000   +2.15372447
 O   -1.01238722   -0.05575351   +2.13943165
 C   +2.39604522   +0.11074090   +1.46744878
 H   +3.16587227   -0.01568849   +2.21864457
 H   +2.50956942   -0.66322252   +0.71198917
 H   +2.50653139   +1.09099544   +1.00949217
 C   -0.04831105   -1.43961256   -0.52933514
 C   -0.11546529   -1.46136958   -2.01884058
 C   -1.24538386   -1.39005287   -2.73989430
 C   -2.63348700   -1.46803212   -2.19374525
 H   +0.84960401   +0.52839389   -0.42331635
 H   +0.83073845   -1.98869331   -0.19324739
 H   +0.82699520   -1.44979924   -2.55012707
 H   -1.15351735   -1.43559831   -3.81696561
 H   -3.31569436   -0.86083038   -2.78149805
 H   -2.99626821   -2.49504581   -2.23573250
 H   -2.69461761   -1.13406852   -1.16227719
 H   -0.90129750   +0.51860571   -0.31247972
 H   -0.91043011   -1.93529438   -0.08944902
 H   -1.27312972   +0.60522863   -2.99450763
22
 * E = +11.172 kcal/mol ; (22) 347_278_297_097
 C   +0.00000000   +0.00000000   +0.00000000
 C   +0.00000000   +0.00000000   +1.50317131
 O   +1.18001306   +0.00000000   +2.14291171
 O   -1.00243177   +0.06383312   +2.15250406
 C   +2.38884613   -0.26002123   +1.46793619
 H   +3.16892165   -0.15798615   +2.21230802
 H   +2.40968795   -1.27328627   +1.07268023
 H   +2.57237089   +0.44964181   +0.66515990
 C   +0.19921131   +1.42069655   -0.55259741
 C   -0.91006207   +2.34586625   -0.18369688
 C   -0.90159151   +3.21363957   +0.83950533
 C   +0.13595558   +3.31211247   +1.90756766
 H   -0.97064721   -0.37736021   -0.30486598
 H   +1.15215803   +1.82189491   -0.21260033
 H   -1.79141495   +2.30952680   -0.80963342
 H   -1.81099506   +3.77156148   +1.01806424
 H   +0.27419510   +4.34137343   +2.22651971
 H   -0.18087885   +2.73282340   +2.77402817
 H   +1.10158686   +2.92479825   +1.59444035
 H   +0.76306803   -0.66197472   -0.40211212
 H   +0.26567572   +1.34477409   -1.63673732
 H   -0.31370864   +4.85870618   -0.15778977
22
 * E = +11.465 kcal/mol ; (23) 351_274_293_226
 C   +0.00000000   +0.00000000   +0.00000000
 C   +0.00000000   +0.00000000   +1.50339191
 O   +1.17642183   +0.00000000   +2.14582835
 O   -1.00551690   +0.05698957   +2.15057340
 C   +2.39556504   -0.18446208   +1.46409849
 H   +3.17033941   -0.06487110   +2.21136762
 H   +2.46444268   -1.18447198   +1.04170808
 H   +2.54269632   +0.55563249   +0.68151835
 C   +0.09693380   +1.42870465   -0.55273482
 C   -1.11664503   +2.23930585   -0.25196153
 C   -1.78056463   +3.02034232   -1.11885992
 C   -1.35148506   +3.39402382   -2.50019465
 H   -0.93984775   -0.44439271   -0.31092069
 H   +0.97769218   +1.92169657   -0.13344447
 H   -1.51762124   +2.13743757   +0.74755009
 H   -2.62151752   +3.57656072   -0.72639038
 H   -2.21120236   +3.53244342   -3.14944434
 H   -0.80527155   +4.33706595   -2.47946286
 H   -0.70645730   +2.64977219   -2.95712234
 H   +0.80944181   -0.60474861   -0.39911589
 H   +0.26487157   +1.37003713   -1.62491753
 H   -3.16177229   +1.71101815   -1.72637041
22
 * E = +11.544 kcal/mol ; (24) 009_086_065_141
 C   +0.00000000   +0.00000000   +0.00000000
 C   +0.00000000   +0.00000000   +1.50388473
 O   +1.17519169   +0.00000000   +2.14708238
 O   -1.00680219   -0.05319630   +2.14955475
 C   +2.39536523   +0.18149040   +1.46611556
 H   +3.16923672   +0.06009569   +2.21397278
 H   +2.54130614   -0.55908676   +0.68398196
 H   +2.46662412   +1.18146168   +1.04402643
 C   +0.10065125   -1.42438023   -0.55970936
 C   -1.08319049   -2.26432349   -0.22057143
 C   -1.67926546   -3.14962193   -1.03364218
 C   -1.40019504   -3.35977230   -2.48665950
 H   +0.80795863   +0.60777645   -0.39790490
 H   +0.23056559   -1.35535153   -1.63636425
 H   -1.45325173   -2.17650082   +0.79198917
 H   -2.55735219   -3.65118335   -0.64916127
 H   -1.54177978   -4.40163120   -2.75957324
 H   -2.09050778   -2.77148927   -3.09144873
 H   -0.38843644   -3.08247870   -2.76478658
 H   -0.94103128   +0.44444951   -0.30729068
 H   +1.00323372   -1.90459705   -0.17130376
 H   -0.70133533   -4.79833178   -0.43600411
