22
 * E =  +0.000 kcal/mol ; (1) 183_202_071_251
 C   +0.00000000   +0.00000000   +0.00000000
 O   +0.00000000   +0.00000000   +1.41699764
 C   +1.20034706   +0.00000000   +1.98807827
 C   +1.10934964   -0.06284901   +3.48219176
 C   +2.37132520   +0.45845400   +4.14706658
 C   +2.50632154   +1.94375684   +3.99302131
 C   +3.38649186   +2.56076422   +3.23358468
 C   +4.48134327   +2.14100658   +2.34602776
 O   +2.22436923   +0.01621887   +1.35915779
 H   +4.29815775   +2.47837535   +1.32786302
 H   +0.50913642   -0.88078073   -0.37869591
 H   +5.42884243   +2.56745278   +2.67064981
 H   +4.57120411   +1.05658228   +2.31652239
 H   +3.24304449   +3.96218695   +3.29182123
 H   +1.79301686   +2.54687180   +4.54561522
 H   +2.33868690   +0.20696320   +5.20638336
 H   +3.23042643   -0.04908349   +3.71658993
 H   +0.22422326   +0.48066614   +3.80429074
 H   +0.94064850   -1.10902453   +3.74101471
 H   -1.04085453   -0.00412334   -0.29603639
 H   +0.50132949   +0.88558185   -0.37732306
 H   +3.12950632   +4.83099780   +3.35317341
22
 * E =  +0.725 kcal/mol ; (2) 179_170_293_243
 C   +0.00000000   +0.00000000   +0.00000000
 O   +0.00000000   +0.00000000   +1.41714558
 C   +1.20120590   +0.00000000   +1.98764423
 C   +1.10429656   +0.03609648   +3.48196202
 C   +2.43772269   -0.21708401   +4.16288204
 C   +2.93518992   -1.61474357   +3.94713987
 C   +3.12999809   -2.51473963   +4.88735560
 C   +2.98568687   -2.55350506   +6.35221065
 O   +2.22451517   -0.00769876   +1.35764894
 H   +3.94078871   -2.76259163   +6.83065929
 H   +0.50705637   -0.88215823   -0.37781377
 H   +2.61354096   -1.60770146   +6.74602689
 H   +2.29431478   -3.33812753   +6.65417194
 H   +3.59952363   -3.74295282   +4.36851750
 H   +3.14740509   -1.88091016   +2.91828601
 H   +3.17061875   +0.48252865   +3.76255081
 H   +2.33478688   -0.00877150   +5.22481085
 H   +0.71569044   +1.01980920   +3.74725853
 H   +0.35113518   -0.68359042   +3.79565789
 H   -1.04087088   -0.00226740   -0.29594021
 H   +0.50358816   +0.88389304   -0.37873004
 H   +3.88892257   -4.49477071   +4.02457882
22
 * E =  +0.729 kcal/mol ; (3) 180_180_177_122
 C   +0.00000000   +0.00000000   +0.00000000
 O   +0.00000000   +0.00000000   +1.41687991
 C   +1.20202410   +0.00000000   +1.98801513
 C   +1.10323259   -0.00053880   +3.48150863
 C   +2.46366413   -0.00974365   +4.15028552
 C   +2.34505176   +0.05850523   +5.64126081
 C   +2.81353840   -0.82388831   +6.49767409
 C   +3.56144646   -2.08790112   +6.39982303
 O   +2.22530726   -0.00039817   +1.35875211
 H   +4.52289420   -2.00922619   +6.90389859
 H   +0.50385878   -0.88370351   -0.37880521
 H   +3.01343336   -2.90100898   +6.87215124
 H   +3.74835694   -2.36394167   +5.36229106
 H   +2.53387846   -0.46727199   +7.83605900
 H   +1.82065339   +0.92251031   +6.03747963
 H   +3.01447311   -0.89403959   +3.84151423
 H   +3.03723957   +0.84372671   +3.78941469
 H   +0.52184445   +0.87280277   +3.77673509
 H   +0.50956626   -0.86313994   +3.78095058
 H   -1.04089783   +0.00139560   -0.29603095
 H   +0.50638891   +0.88223473   -0.37882444
 H   +2.34250457   -0.21951277   +8.65407595
22
 * E =  +1.126 kcal/mol ; (4) 180_318_299_112
 C   +0.00000000   +0.00000000   +0.00000000
 O   +0.00000000   +0.00000000   +1.41605608
 C   +1.20527254   +0.00000000   +1.98484627
 C   +1.12054569   +0.01089298   +3.48122764
 C   +0.04722739   +0.94675289   +4.02178704
 C   +0.29751669   +2.36821520   +3.61738736
 C   -0.43715651   +3.06539045   +2.77668412
 C   -1.66185350   +2.81198183   +2.00103317
 O   +2.22363218   -0.02972490   +1.35023282
 H   -2.45193811   +3.50491791   +2.28477238
 H   -1.04076655   +0.01204810   -0.29776143
 H   -1.47804882   +2.94828928   +0.93649537
 H   -2.02184126   +1.79476230   +2.15037815
 H   +0.06402015   +4.37168776   +2.58159618
 H   +1.17901459   +2.83808696   +4.04077898
 H   -0.92770436   +0.61791603   +3.67360394
 H   +0.04330452   +0.87459223   +5.10899933
 H   +0.91881652   -1.01116468   +3.80294443
 H   +2.10705527   +0.27721773   +3.84866144
 H   +0.51655290   +0.87786877   -0.37579580
 H   +0.49531541   -0.88790842   -0.38017413
 H   +0.39346993   +5.17764994   +2.48368031
22
 * E =  +1.767 kcal/mol ; (5) 181_307_177_119
 C   +0.00000000   +0.00000000   +0.00000000
 O   +0.00000000   +0.00000000   +1.41669479
 C   +1.20369765   +0.00000000   +1.98831923
 C   +1.11130202   -0.01593611   +3.48244845
 C   +0.22767297   +1.09422206   +4.04092170
 C   +0.10750899   +0.99928384   +5.53030273
 C   +0.48594685   +1.91232706   +6.39883998
 C   +1.10384238   +3.24585158   +6.31962514
 O   +2.22391953   +0.00506158   +1.35465038
 H   +0.44861837   +4.00302169   +6.74624461
 H   +0.50393668   -0.88393824   -0.37815902
 H   +2.03779391   +3.27347916   +6.87761181
 H   +1.31917660   +3.52874559   +5.28943908
 H   +0.23676528   +1.51490472   +7.73100584
 H   -0.33128939   +0.08245239   +5.91101089
 H   +0.62999950   +2.06291819   +3.75206801
 H   -0.76097908   +1.01391385   +3.59119004
 H   +0.70681445   -0.98432913   +3.77797758
 H   +2.12168027   +0.05406589   +3.87105948
 H   -1.04072241   +0.00210423   -0.29680830
 H   +0.50780249   +0.88154460   -0.37840993
 H   +0.07232062   +1.23881248   +8.54590844
22
 * E =  +1.795 kcal/mol ; (6) 181_312_182_240
 C   +0.00000000   +0.00000000   +0.00000000
 O   +0.00000000   +0.00000000   +1.41683017
 C   +1.20439539   +0.00000000   +1.98732375
 C   +1.11547775   -0.02607030   +3.48169653
 C   +0.14561668   +1.00133745   +4.05262369
 C   +0.13700281   +0.97140522   +5.54996708
 C   -0.90745538   +0.72206601   +6.31059665
 C   -2.32775454   +0.41502190   +6.07593867
 O   +2.22359357   +0.00557563   +1.35220937
 H   -2.59798101   -0.53769013   +6.52739781
 H   +0.50639171   -0.88246868   -0.37820969
 H   -2.96708811   +1.17631188   +6.51906171
 H   -2.55644301   +0.36091776   +5.01178353
 H   -0.58777525   +0.76331243   +7.68570128
 H   +1.08697446   +1.17077534   +6.03515604
 H   +0.44505163   +1.99625637   +3.71941593
 H   -0.84826866   +0.82197482   +3.65355064
 H   +0.79742921   -1.02588599   +3.77662497
 H   +2.12104071   +0.12271051   +3.86288366
 H   -1.04074226   -0.00065475   -0.29682810
 H   +0.50520587   +0.88302604   -0.37833543
 H   -0.35884908   +0.79418573   +8.53074962
22
 * E =  +1.853 kcal/mol ; (7) 182_329_299_242
 C   +0.00000000   +0.00000000   +0.00000000
 O   +0.00000000   +0.00000000   +1.41712227
 C   +1.20416650   +0.00000000   +1.98703502
 C   +1.13084447   -0.04786321   +3.48409161
 C   -0.08529631   +0.62987546   +4.09859133
 C   -0.14509227   +2.09422217   +3.78571807
 C   -0.09736739   +3.07559865   +4.66093085
 C   +0.01056635   +3.17259762   +6.12580841
 O   +2.22324100   +0.00255612   +1.35225583
 H   -0.85443043   +3.68265214   +6.54573613
 H   +0.50092455   -0.88582768   -0.37759714
 H   +0.07907635   +2.18924997   +6.59084788
 H   +0.89278773   +3.74191035   +6.41241197
 H   -0.17216871   +4.34538759   +4.04601777
 H   -0.23529797   +2.34809532   +2.73490831
 H   -0.98650735   +0.14878203   +3.72137899
 H   -0.06297843   +0.47228805   +5.17410457
 H   +1.13987346   -1.10457441   +3.75476053
 H   +2.05635009   +0.38187742   +3.85521435
 H   -1.04072905   +0.00642857   -0.29664366
 H   +0.51181194   +0.87951731   -0.37764096
 H   -0.22041302   +5.11931375   +3.63861458
22
 * E =  +3.273 kcal/mol ; (8) 179_310_307_321
 C   +0.00000000   +0.00000000   +0.00000000
 O   +0.00000000   +0.00000000   +1.41661840
 C   +1.20088496   +0.00000000   +1.98777161
 C   +1.10786687   +0.02403353   +3.48305965
 C   +0.17937284   +1.11717892   +3.99266486
 C   +0.48155228   +2.49309420   +3.45947718
 C   +1.66980682   +3.02099391   +3.24799698
 C   +3.07592453   +2.61067964   +3.43259442
 O   +2.22399292   -0.02896367   +1.35765389
 H   +3.22603515   +2.13793240   +4.40298537
 H   +0.50062104   -0.88544912   -0.37897591
 H   +3.38702186   +1.91107156   +2.65771962
 H   +3.73583770   +3.47406884   +3.38631780
 H   +1.55865013   +4.31072506   +2.73983058
 H   -0.38131278   +3.10693648   +3.22892320
 H   -0.84114276   +0.86196308   +3.71895600
 H   +0.21325909   +1.12703977   +5.08306587
 H   +0.73781241   -0.94718935   +3.81020618
 H   +2.11826731   +0.13079884   +3.86036870
 H   -1.04073391   +0.00631949   -0.29667165
 H   +0.51006447   +0.88147870   -0.37537657
 H   +1.46782004   +5.13573299   +2.43518697
22
 * E =  +8.242 kcal/mol ; (9) 000_165_286_109
 C   +0.00000000   +0.00000000   +0.00000000
 O   +0.00000000   +0.00000000   +1.40903948
 C   +1.14011522   +0.00000000   +2.10803120
 C   +2.43982034   -0.01061011   +1.34603218
 C   +3.61504444   +0.34983198   +2.23959114
 C   +3.62994521   +1.81250778   +2.56928434
 C   +3.35822917   +2.34103895   +3.74344900
 C   +2.98703774   +1.82048475   +5.06705555
 O   +1.08357993   -0.02299274   +3.30311420
 H   +2.94983524   +0.73279945   +5.06531431
 H   +0.59633704   -0.81434515   -0.40441168
 H   +3.69223339   +2.15353862   +5.82639441
 H   +1.99861534   +2.17560761   +5.35121627
 H   +3.44597026   +3.74647566   +3.71626158
 H   +3.87119377   +2.48205310   +1.74951333
 H   +3.56736080   -0.24627048   +3.14613420
 H   +4.53724422   +0.08967605   +1.72126075
 H   +2.56375156   -1.01259667   +0.93002947
 H   +2.38701567   +0.66698264   +0.49571025
 H   -1.03291326   -0.13954972   -0.29365786
 H   +0.35505449   +0.94832499   -0.39702696
 H   +3.51433568   +4.62119107   +3.66272684
22
 * E =  +8.640 kcal/mol ; (10) 001_180_178_121
 C   +0.00000000   +0.00000000   +0.00000000
 O   +0.00000000   +0.00000000   +1.40888482
 C   +1.14402382   +0.00000000   +2.10400035
 C   +2.43444648   +0.01475434   +1.33145410
 C   +3.63860736   +0.00392608   +2.25315615
 C   +4.92112066   -0.03262808   +1.48164712
 C   +5.88517704   +0.86138000   +1.53909366
 C   +6.11513479   +2.11107027   +2.28197664
 O   +1.09624863   -0.00810576   +3.29929300
 H   +5.26548226   +2.36305008   +2.91609851
 H   +0.47439587   -0.89269382   -0.40105257
 H   +6.99418829   +2.02643491   +2.91812368
 H   +6.28715129   +2.94225042   +1.60077362
 H   +6.96295774   +0.53568595   +0.68626392
 H   +5.05517898   -0.88193890   +0.81871238
 H   +3.59673216   +0.86851590   +2.90915853
 H   +3.57207102   -0.86842032   +2.90216814
 H   +2.45699268   -0.84431861   +0.65949483
 H   +2.45613982   +0.89397602   +0.68697704
 H   -1.04202910   +0.00738168   -0.29400938
 H   +0.48765212   +0.88492990   -0.40207639
 H   +7.61254993   +0.30567935   +0.14518226
22
 * E =  +8.812 kcal/mol ; (11) 003_187_069_118
 C   +0.00000000   +0.00000000   +0.00000000
 O   +0.00000000   +0.00000000   +1.40906750
 C   +1.14219392   +0.00000000   +2.10534651
 C   +2.43450606   +0.06778514   +1.33601416
 C   +3.64594556   -0.10891072   +2.23558408
 C   +3.75414517   -1.50209622   +2.77833901
 C   +4.74412882   -2.33845672   +2.54858673
 C   +6.00522373   -2.29414871   +1.78956844
 O   +1.09140849   -0.02771921   +3.30058082
 H   +6.85901523   -2.44038420   +2.44874143
 H   +0.40656883   -0.92714962   -0.39745045
 H   +6.03677264   -3.08372171   +1.04095880
 H   +6.13682926   -1.34031709   +1.27862359
 H   +4.56086100   -3.58188210   +3.19491974
 H   +2.93674726   -1.82023795   +3.41424348
 H   +4.53970132   +0.15112491   +1.67392345
 H   +3.56324374   +0.58927786   +3.06709338
 H   +2.43475319   -0.68068194   +0.54495188
 H   +2.46983301   +1.03860266   +0.83816570
 H   -1.03887524   +0.08339459   -0.29366483
 H   +0.55107369   +0.84556267   -0.40459333
 H   +4.42733287   -4.34571236   +3.60227804
22
 * E = +10.643 kcal/mol ; (12) 354_269_181_117
 C   +0.00000000   +0.00000000   +0.00000000
 O   +0.00000000   +0.00000000   +1.40893503
 C   +1.13963286   +0.00000000   +2.11212289
 C   +2.44720816   -0.13511788   +1.38095508
 C   +2.83845065   -1.61016689   +1.27039061
 C   +4.14523709   -1.78105180   +0.55991480
 C   +5.24126298   -2.29267562   +1.07814406
 C   +5.62379937   -2.85078226   +2.38484670
 O   +1.08000140   +0.05248364   +3.30620215
 H   +5.93018197   -3.89047599   +2.28672941
 H   +0.56052894   -0.83842150   -0.40667529
 H   +6.46440104   -2.30354851   +2.80693062
 H   +4.80154007   -2.80659354   +3.09840778
 H   +6.30576231   -2.30973034   +0.15258327
 H   +4.17616049   -1.44086536   -0.47017995
 H   +2.88040364   -2.03496118   +2.26977371
 H   +2.06407348   -2.15828253   +0.73050991
 H   +2.42260809   +0.32257102   +0.39541969
 H   +3.18989162   +0.38725165   +1.97479472
 H   -1.03801362   -0.09607377   -0.29353359
 H   +0.39407196   +0.93324607   -0.39582994
 H   +6.94635865   -2.30371553   -0.44586647
22
 * E = +10.740 kcal/mol ; (13) 354_269_184_238
 C   +0.00000000   +0.00000000   +0.00000000
 O   +0.00000000   +0.00000000   +1.40882027
 C   +1.13999940   +0.00000000   +2.11167346
 C   +2.44672944   -0.12794904   +1.37751066
 C   +2.84955671   -1.59968447   +1.26768159
 C   +4.19646625   -1.75064387   +0.63218074
 C   +4.46774130   -2.44163672   -0.45430329
 C   +3.69475456   -3.26827004   -1.39538657
 O   +1.08119656   +0.04770333   +3.30577537
 H   +3.78475603   -2.88788792   -2.41111032
 H   +0.56764171   -0.83374200   -0.40652482
 H   +4.06119551   -4.29305922   -1.40022963
 H   +2.63636807   -3.29426339   -1.13584471
 H   +5.83682876   -2.38227654   -0.79469074
 H   +5.01130367   -1.23369385   +1.12834651
 H   +2.87091612   -2.01990814   +2.27308744
 H   +2.10026555   -2.15897001   +0.71019904
 H   +2.42192030   +0.32698404   +0.39162185
 H   +3.18360152   +0.40231551   +1.97310666
 H   -1.03724431   -0.10391106   -0.29363824
 H   +0.38767351   +0.93577150   -0.39603186
 H   +6.69049462   -2.32538299   -0.98145994
22
 * E = +11.631 kcal/mol ; (14) 017_079_069_268
 C   +0.00000000   +0.00000000   +0.00000000
 O   +0.00000000   +0.00000000   +1.40912776
 C   +1.14568384   +0.00000000   +2.11288422
 C   +2.40886212   +0.39186428   +1.40011327
 C   +2.49765977   +1.92101427   +1.28104648
 C   +2.73097055   +2.59003768   +2.60454972
 C   +1.78384507   +3.02931457   +3.40492234
 C   +0.31358818   +3.04208054   +3.36536018
 O   +1.09698214   -0.23048319   +3.28482257
 H   -0.08537977   +2.32046633   +4.07568329
 H   +0.46813103   -0.89972143   -0.39331595
 H   -0.07961683   +4.02359087   +3.62182779
 H   -0.06446330   +2.76917083   +2.37903886
 H   +2.30545021   +3.59074592   +4.59260182
 H   +3.76213612   +2.67652905   +2.92626081
 H   +3.31394693   +2.16437317   +0.60382328
 H   +1.58759807   +2.30861810   +0.82453211
 H   +3.23538428   +0.01731594   +1.99477673
 H   +2.46583012   -0.06157576   +0.41356119
 H   -1.04238626   +0.01015302   -0.29397554
 H   +0.49170233   +0.87782614   -0.41217506
 H   +2.65921832   +3.94276623   +5.31061742
22
 * E = +11.651 kcal/mol ; (15) 351_274_294_232
 C   +0.00000000   +0.00000000   +0.00000000
 O   +0.00000000   +0.00000000   +1.40888088
 C   +1.13860586   +0.00000000   +2.11625392
 C   +2.43854696   -0.20742099   +1.38910643
 C   +2.74679639   -1.70049936   +1.22395429
 C   +2.99893042   -2.38749643   +2.53247998
 C   +4.04527370   -3.13654835   +2.80698917
 C   +5.24923851   -3.57119093   +2.07976168
 O   +1.07402219   +0.10829676   +3.30634966
 H   +6.15049277   -3.29043208   +2.62144700
 H   +0.54246064   -0.84860842   -0.40916321
 H   +5.26407396   -4.65379623   +1.96724678
 H   +5.30426915   -3.13096310   +1.08403003
 H   +4.00950257   -3.65049416   +4.12360783
 H   +2.25194789   -2.23754875   +3.30338952
 H   +1.91368978   -2.19232505   +0.71788242
 H   +3.60932018   -1.80342369   +0.57021445
 H   +2.43316363   +0.27627866   +0.41606526
 H   +3.20975518   +0.25653823   +1.99510639
 H   -1.04001640   -0.07312899   -0.29321754
 H   +0.41335858   +0.92545640   -0.39484478
 H   +3.97100180   -3.95552260   +4.94267571
