21
 * E =  +0.000 kcal/mol ; (1) 182_204_071_248
 C   +0.00000000   +0.00000000   +0.00000000
 O   +0.00000000   +0.00000000   +1.41658592
 C   +1.20240146   +0.00000000   +1.98622142
 C   +1.11579885   -0.05935342   +3.48034228
 C   +2.35980635   +0.51127794   +4.14171154
 C   +2.43868120   +1.99387972   +3.98469790
 C   +3.31356099   +2.68450939   +3.26039880
 C   +4.43674253   +2.15678779   +2.43947988
 O   +2.22404984   +0.01396968   +1.35400992
 H   +4.32792446   +2.47634729   +1.40425583
 H   +0.50573326   -0.88270487   -0.37902196
 H   +5.38834189   +2.55071546   +2.79547598
 H   +4.48398747   +1.07412437   +2.43663663
 H   +3.20616067   +3.76263687   +3.25986067
 H   +1.67622352   +2.55309174   +4.51500296
 H   +2.32926275   +0.26190867   +5.20217077
 H   +3.23436775   +0.02360834   +3.72139375
 H   +0.21246131   +0.45390651   +3.80145438
 H   +0.98558108   -1.10991542   +3.74351177
 H   -1.04083061   -0.00015562   -0.29645929
 H   +0.50540351   +0.88318410   -0.37761895
21
 * E =  +0.362 kcal/mol ; (2) 180_180_177_121
 C   +0.00000000   +0.00000000   +0.00000000
 O   +0.00000000   +0.00000000   +1.41651703
 C   +1.20297434   +0.00000000   +1.98759707
 C   +1.10454698   -0.00046720   +3.48078641
 C   +2.46386706   -0.01219928   +4.15403757
 C   +2.34028031   +0.06339869   +5.63801624
 C   +2.77867230   -0.81329569   +6.53561505
 C   +3.50692969   -2.08793138   +6.28517577
 O   +2.22497945   -0.00004833   +1.35628523
 H   +4.49015595   -2.06586774   +6.75360669
 H   +0.50356567   -0.88379057   -0.37913303
 H   +2.97067838   -2.92823559   +6.72407851
 H   +3.64713411   -2.29497292   +5.22948633
 H   +2.59646708   -0.58434956   +7.57832603
 H   +1.82895635   +0.94300478   +6.01242826
 H   +3.01223387   -0.89508833   +3.83987942
 H   +3.03740132   +0.83991955   +3.78878212
 H   +0.52309480   +0.87328698   +3.77511950
 H   +0.50900741   -0.86222053   +3.77929274
 H   -1.04089404   +0.00172305   -0.29628615
 H   +0.50673252   +0.88194385   -0.37918579
21
 * E =  +0.373 kcal/mol ; (3) 178_168_293_244
 C   +0.00000000   +0.00000000   +0.00000000
 O   +0.00000000   +0.00000000   +1.41666041
 C   +1.20213191   +0.00000000   +1.98729090
 C   +1.10570180   +0.04008029   +3.48132700
 C   +2.43301348   -0.24181569   +4.16591633
 C   +2.90063071   -1.64265073   +3.94976758
 C   +3.06164243   -2.58930628   +4.86906893
 C   +2.82648520   -2.49108352   +6.33680730
 O   +2.22412321   -0.00904556   +1.35509044
 H   +2.10125616   -3.23695228   +6.65979103
 H   +0.50702537   -0.88208070   -0.37821787
 H   +3.74506238   -2.69049863   +6.88747381
 H   +2.46013392   -1.51694477   +6.64414511
 H   +3.41123925   -3.55478883   +4.52465878
 H   +3.12778055   -1.89016867   +2.92104682
 H   +3.17732862   +0.44505053   +3.76369288
 H   +2.33082762   -0.02050556   +5.22444914
 H   +0.73849793   +1.03310762   +3.74285579
 H   +0.33615206   -0.66184207   +3.79527758
 H   -1.04086046   -0.00219212   -0.29624374
 H   +0.50367391   +0.88370340   -0.37922812
21
 * E =  +0.735 kcal/mol ; (4) 180_318_299_113
 C   +0.00000000   +0.00000000   +0.00000000
 O   +0.00000000   +0.00000000   +1.41541292
 C   +1.20398828   +0.00000000   +1.98582007
 C   +1.11474270   +0.00787839   +3.48160646
 C   +0.05019076   +0.95801905   +4.01853920
 C   +0.32702522   +2.37055176   +3.62453127
 C   -0.38785885   +3.13410047   +2.80409554
 C   -1.65123203   +2.78202565   +2.09950749
 O   +2.22358908   -0.02663694   +1.35217963
 H   -2.45525092   +3.45537924   +2.39464755
 H   +0.49572339   -0.88773344   -0.38037044
 H   -1.52861166   +2.89485675   +1.02263042
 H   -1.96958831   +1.76315619   +2.29023981
 H   -0.02034401   +4.13609906   +2.61971554
 H   +1.23151821   +2.79679521   +4.04226995
 H   -0.92595063   +0.63546724   +3.66989013
 H   +0.04358336   +0.87821246   +5.10567410
 H   +0.89974171   -1.01231225   +3.80037154
 H   +2.10302893   +0.26231319   +3.85286702
 H   -1.04076010   +0.01191689   -0.29769136
 H   +0.51593531   +0.87812192   -0.37601026
21
 * E =  +1.344 kcal/mol ; (5) 180_305_177_117
 C   +0.00000000   +0.00000000   +0.00000000
 O   +0.00000000   +0.00000000   +1.41631607
 C   +1.20403032   +0.00000000   +1.98821154
 C   +1.11131651   -0.01085298   +3.48181845
 C   +0.25797999   +1.12566192   +4.03893437
 C   +0.12931966   +1.03076581   +5.52127680
 C   +0.54923353   +1.90394453   +6.43083896
 C   +1.24955097   +3.19761860   +6.19979021
 O   +2.22370849   +0.00294279   +1.35319785
 H   +0.66078678   +4.02759443   +6.58855168
 H   +0.50386406   -0.88383075   -0.37865284
 H   +2.20184199   +3.21562703   +6.72780385
 H   +1.44726869   +3.39212728   +5.15090354
 H   +0.36459828   +1.65984391   +7.46960419
 H   -0.36177339   +0.13371574   +5.88040150
 H   +0.68700551   +2.07939343   +3.74204746
 H   -0.72989975   +1.06981568   +3.58307081
 H   +0.68050595   -0.96690358   +3.78015951
 H   +2.12314783   +0.03385024   +3.87043018
 H   -1.04075044   +0.00207411   -0.29693173
 H   +0.50754317   +0.88157025   -0.37882137
21
 * E =  +1.359 kcal/mol ; (6) 181_310_183_241
 C   +0.00000000   +0.00000000   +0.00000000
 O   +0.00000000   +0.00000000   +1.41643245
 C   +1.20439388   +0.00000000   +1.98740349
 C   +1.11491664   -0.02317827   +3.48127806
 C   +0.16652707   +1.02603494   +4.05277344
 C   +0.16889776   +1.00483167   +5.54393951
 C   -0.85839009   +0.76136262   +6.35129896
 C   -2.26585756   +0.45744949   +5.97157840
 O   +2.22329953   +0.00486920   +1.35121057
 H   -2.57841002   -0.49621476   +6.39466960
 H   +0.50685830   -0.88213799   -0.37853539
 H   -2.94201628   +1.21259415   +6.37062017
 H   -2.41490961   +0.41096589   +4.89793466
 H   -0.66437317   +0.78722355   +7.41641006
 H   +1.12837791   +1.20766848   +6.00511046
 H   +0.48720643   +2.01140708   +3.70991137
 H   -0.82844457   +0.86574380   +3.65055275
 H   +0.77459091   -1.01519207   +3.77760706
 H   +2.12348897   +0.10445020   +3.86228052
 H   -1.04074882   -0.00114733   -0.29695719
 H   +0.50475454   +0.88321207   -0.37866249
21
 * E =  +1.427 kcal/mol ; (7) 182_325_299_244
 C   +0.00000000   +0.00000000   +0.00000000
 O   +0.00000000   +0.00000000   +1.41649565
 C   +1.20505614   +0.00000000   +1.98608577
 C   +1.12979879   -0.05061463   +3.48238721
 C   -0.03918700   +0.70988485   +4.09633051
 C   -0.00145884   +2.16664952   +3.77637506
 C   +0.13751829   +3.17978808   +4.62519212
 C   +0.28214045   +3.11870803   +6.10614489
 O   +2.22290282   +0.00492321   +1.34883835
 H   +1.20751832   +3.59999792   +6.41969029
 H   +0.50199206   -0.88501471   -0.37828089
 H   -0.53021721   +3.65607362   +6.59392614
 H   +0.28803403   +2.10422657   +6.49104472
 H   +0.14669282   +4.17734099   +4.20389560
 H   -0.09620678   +2.40588305   +2.72393135
 H   -0.96771376   +0.28409925   +3.71797917
 H   -0.02876982   +0.54464623   +5.16998855
 H   +1.06380013   -1.10621510   +3.74933407
 H   +2.08156252   +0.31534025   +3.85489198
 H   -1.04074855   +0.00498591   -0.29691353
 H   +0.51059204   +0.88003038   -0.37835205
21
 * E =  +8.258 kcal/mol ; (8) 000_180_177_119
 C   +0.00000000   +0.00000000   +0.00000000
 O   +0.00000000   +0.00000000   +1.40854215
 C   +1.14503189   +0.00000000   +2.10383161
 C   +2.43441329   +0.00523592   +1.33016347
 C   +3.64388760   +0.00932064   +2.24664326
 C   +4.91649743   -0.05249671   +1.47216767
 C   +5.90061791   +0.84085892   +1.45560305
 C   +5.98139608   +2.12274979   +2.20916122
 O   +1.09560437   -0.00256926   +3.29902179
 H   +6.83864293   +2.11800636   +2.88119140
 H   +0.47888941   -0.89002910   -0.40171726
 H   +6.12446058   +2.95971635   +1.52704520
 H   +5.09567272   +2.32217427   +2.80298954
 H   +6.75622056   +0.62025938   +0.82937325
 H   +5.03876686   -0.93615788   +0.85590381
 H   +3.60049590   +0.88397467   +2.88775335
 H   +3.57207524   -0.84990742   +2.91283726
 H   +2.45467535   -0.86374512   +0.67061871
 H   +2.45377172   +0.87423581   +0.67187288
 H   -1.04207330   +0.00237458   -0.29421107
 H   +0.48344725   +0.88733911   -0.40197318
21
 * E =  +8.260 kcal/mol ; (9) 002_193_074_248
 C   +0.00000000   +0.00000000   +0.00000000
 O   +0.00000000   +0.00000000   +1.40851576
 C   +1.14278476   +0.00000000   +2.10651309
 C   +2.43866158   +0.04847621   +1.34052739
 C   +3.62997680   -0.27312976   +2.22866006
 C   +3.69739088   -1.72845173   +2.55514975
 C   +3.50978856   -2.30139562   +3.73945528
 C   +3.19722759   -1.64039048   +5.03439752
 O   +1.08754546   -0.00217092   +3.30133692
 H   +2.22761768   -1.97448791   +5.40017523
 H   +0.37031958   -0.94236020   -0.39752430
 H   +3.93601242   -1.91067084   +5.78808986
 H   +3.15215884   -0.56067892   +4.95645472
 H   +3.58738933   -3.38141012   +3.77750043
 H   +3.91027024   -2.37764307   +1.71300840
 H   +4.53676059   +0.01893166   +1.69896083
 H   +3.57043450   +0.33070831   +3.12855199
 H   +2.40140657   -0.63339371   +0.49237030
 H   +2.52847956   +1.05186286   +0.91923356
 H   -1.03497126   +0.12311893   -0.29410909
 H   +0.58336504   +0.82345565   -0.40510297
21
 * E =  +8.362 kcal/mol ; (10) 003_188_069_116
 C   +0.00000000   +0.00000000   +0.00000000
 O   +0.00000000   +0.00000000   +1.40881019
 C   +1.14305821   +0.00000000   +2.10542821
 C   +2.43494090   +0.05911719   +1.33508052
 C   +3.64931626   -0.13222476   +2.22997571
 C   +3.74603929   -1.52121291   +2.76759089
 C   +4.70100020   -2.41280595   +2.52139839
 C   +5.90856686   -2.25232039   +1.66384342
 O   +1.09002399   -0.02073087   +3.30070608
 H   +6.81666304   -2.37927967   +2.25204772
 H   +0.39491171   -0.93224412   -0.39745158
 H   +5.93180698   -3.01553301   +0.88693648
 H   +5.96077528   -1.28273554   +1.17916539
 H   +4.60687017   -3.37812914   +3.00325788
 H   +2.93986681   -1.80799796   +3.42928619
 H   +4.53883950   +0.13240979   +1.66532898
 H   +3.57172422   +0.56629685   +3.06205319
 H   +2.42667890   -0.68629415   +0.54119427
 H   +2.47620247   +1.03161628   +0.84077631
 H   -1.03768689   +0.09677453   -0.29402558
 H   +0.56244555   +0.83799621   -0.40463150
21
 * E = +10.139 kcal/mol ; (11) 006_091_176_121
 C   +0.00000000   +0.00000000   +0.00000000
 O   +0.00000000   +0.00000000   +1.40878152
 C   +1.14072076   +0.00000000   +2.11123935
 C   +2.44627495   +0.12664426   +1.37599239
 C   +2.84793165   +1.59921342   +1.25200715
 C   +4.19059868   +1.74273910   +0.62088288
 C   +4.49622820   +2.39138669   -0.49803816
 C   +3.58046149   +3.14588568   -1.39779074
 O   +1.08123586   -0.04781023   +3.30549372
 H   +3.87766637   +4.19209993   -1.45577057
 H   +0.38416128   -0.93735371   -0.39585200
 H   +3.62842427   +2.75137586   -2.41180775
 H   +2.54489428   +3.11521034   -1.07473989
 H   +5.53559835   +2.38510160   -0.80144136
 H   +4.99748540   +1.25010108   +1.15023704
 H   +2.09222517   +2.15014270   +0.69668528
 H   +2.86675484   +2.02462582   +2.25555686
 H   +3.18483279   -0.39814886   +1.97433598
 H   +2.42072979   -0.33595273   +0.39356372
 H   -1.03691159   +0.10756105   -0.29367784
 H   +0.57077086   +0.83127659   -0.40696064
21
 * E = +10.171 kcal/mol ; (12) 006_090_180_245
 C   +0.00000000   +0.00000000   +0.00000000
 O   +0.00000000   +0.00000000   +1.40869546
 C   +1.14080430   +0.00000000   +2.11147276
 C   +2.44569641   +0.14725820   +1.37915119
 C   +2.82012431   +1.62693694   +1.25110543
 C   +4.10994235   +1.80335373   +0.52409082
 C   +5.24460642   +2.30029041   +1.00551189
 C   +5.50845776   +2.80826975   +2.37970555
 O   +1.08060657   -0.06214097   +3.30510239
 H   +6.34107458   +2.27027557   +2.83035500
 H   +0.39410636   -0.93339538   -0.39564938
 H   +5.79445067   +3.85888505   +2.35085694
 H   +4.65395520   +2.71231113   +3.04099227
 H   +6.08683172   +2.34890521   +0.32651514
 H   +4.10600810   +1.47576122   -0.50900155
 H   +2.03084150   +2.15776049   +0.71509046
 H   +2.85889858   +2.05970358   +2.24628560
 H   +3.19596432   -0.35926855   +1.97707956
 H   +2.42581178   -0.32153278   +0.39850673
 H   -1.03803055   +0.09590755   -0.29377000
 H   +0.56078818   +0.83796051   -0.40701123
21
 * E = +10.942 kcal/mol ; (13) 014_081_068_267
 C   +0.00000000   +0.00000000   +0.00000000
 O   +0.00000000   +0.00000000   +1.40858033
 C   +1.14380320   +0.00000000   +2.11461426
 C   +2.42199923   +0.32221230   +1.39349721
 C   +2.58937296   +1.84211448   +1.23538802
 C   +2.81410018   +2.53511191   +2.54023569
 C   +1.88163450   +3.08474114   +3.30981419
 C   +0.41604805   +3.12966420   +3.05650760
 O   +1.08685818   -0.18969266   +3.29372886
 H   -0.10279292   +2.49113933   +3.77020720
 H   +0.44830654   -0.90959031   -0.39402851
 H   +0.02968570   +4.13970742   +3.18163310
 H   +0.14508177   +2.78344497   +2.06325813
 H   +2.20629250   +3.52463361   +4.24404084
 H   +3.83630401   +2.54665796   +2.89532978
 H   +3.44093427   +2.01619873   +0.58017447
 H   +1.72103245   +2.25827480   +0.72747846
 H   +3.22878209   -0.07430953   +2.00121625
 H   +2.46189858   -0.15962130   +0.41960938
 H   -1.04194381   +0.03301632   -0.29407069
 H   +0.51080599   +0.86665860   -0.41218331
21
 * E = +10.947 kcal/mol ; (14) 009_085_066_130
 C   +0.00000000   +0.00000000   +0.00000000
 O   +0.00000000   +0.00000000   +1.40878754
 C   +1.13945100   +0.00000000   +2.11567038
 C   +2.43750416   +0.21387007   +1.38789608
 C   +2.74002242   +1.70869974   +1.21543508
 C   +2.98073882   +2.39964343   +2.51656612
 C   +4.00153052   +3.19442169   +2.81957463
 C   +5.14273095   +3.59698386   +1.95146400
 O   +1.07424553   -0.11535552   +3.30531744
 H   +5.15016409   +4.67663916   +1.80608690
 H   +0.41104173   -0.92665991   -0.39454578
 H   +6.09092139   +3.33910191   +2.42100443
 H   +5.11849093   +3.13325417   +0.97053942
 H   +4.01586609   +3.61177299   +3.81849244
 H   +2.23936055   +2.21664751   +3.28325309
 H   +3.59944821   +1.80576853   +0.55808015
 H   +1.90467124   +2.18959539   +0.70158306
 H   +3.21139901   -0.24355566   +1.99547357
 H   +2.43321120   -0.27520659   +0.41747838
 H   -1.03986307   +0.07555844   -0.29334615
 H   +0.54480969   +0.84678158   -0.40950681
21
 * E = +12.828 kcal/mol ; (15) 358_167_288_009
 C   +0.00000000   +0.00000000   +0.00000000
 O   +0.00000000   +0.00000000   +1.40843943
 C   +1.14467193   +0.00000000   +2.10470636
 C   +2.43810831   -0.05194794   +1.33607308
 C   +3.63578929   +0.27004577   +2.20239096
 C   +3.84291272   +1.68033021   +2.65519284
 C   +3.09577022   +2.77782716   +2.58132103
 C   +1.73361965   +3.01073809   +2.01253701
 O   +1.09356849   +0.01215715   +3.29917127
 H   +0.97089990   +2.86712744   +2.77740051
 H   +0.58420849   -0.82235291   -0.40577272
 H   +1.64849982   +4.03540032   +1.65931015
 H   +1.48173977   +2.36657897   +1.17725411
 H   +3.52543336   +3.65453746   +3.04964464
 H   +4.78922294   +1.80146940   +3.16863770
 H   +3.58947096   -0.35678193   +3.09364010
 H   +4.53257976   -0.04008887   +1.66495094
 H   +2.53512591   -1.07045485   +0.95396012
 H   +2.40315443   +0.59060698   +0.46019083
 H   -1.03487450   -0.12187378   -0.29485692
 H   +0.37045955   +0.94375431   -0.39684298
