21
 * E =  +0.000 kcal/mol ; (1) 178_163_228_239
 C   +0.00000000   +0.00000000   +0.00000000
 O   +0.00000000   +0.00000000   +1.41695642
 C   +1.20316888   +0.00000000   +1.98624169
 C   +1.10128661   +0.05580722   +3.48196404
 C   +2.36154239   -0.35278433   +4.16082006
 C   +2.41811098   -1.22244592   +5.15908340
 C   +3.66562683   -1.64260451   +5.85762773
 C   +3.90956530   -3.13971545   +5.75689024
 O   +2.22491615   -0.01205253   +1.35632675
 H   +4.80696411   -3.42842722   +6.29900506
 H   +0.50202909   +0.88485609   -0.37869577
 H   +4.02775342   -3.44351076   +4.71958185
 H   +3.07551730   -3.70143465   +6.17369599
 H   +3.59853187   -1.36382898   +6.91085022
 H   +4.51267483   -1.09715490   +5.44427855
 H   +1.49851439   -1.68696825   +5.50239151
 H   +3.27024042   +0.10457237   +3.79140777
 H   +0.85079337   +1.09218917   +3.72327657
 H   +0.25311939   -0.54300701   +3.80376705
 H   +0.50905988   -0.88094389   -0.37794332
 H   -1.04088327   -0.00410061   -0.29613478
21
 * E =  +0.028 kcal/mol ; (2) 182_197_131_000
 C   +0.00000000   +0.00000000   +0.00000000
 O   +0.00000000   +0.00000000   +1.41685287
 C   +1.20326854   +0.00000000   +1.98634539
 C   +1.10139197   -0.05634319   +3.48201730
 C   +2.36185706   +0.35245714   +4.16113109
 C   +2.40893675   +1.22871254   +5.15451868
 C   +3.63562753   +1.66945394   +5.88210105
 C   +4.92857603   +1.04014860   +5.41143461
 O   +2.22484820   +0.01225851   +1.35603619
 H   +5.77054982   +1.41718548   +5.98593996
 H   +0.50921574   +0.88079816   -0.37809606
 H   +5.11503144   +1.25965735   +4.36239411
 H   +4.90590415   -0.04169724   +5.52589137
 H   +3.49488254   +1.47004961   +6.94644729
 H   +3.70677937   +2.75621985   +5.80427972
 H   +1.48113055   +1.68309073   +5.48613803
 H   +3.26648298   -0.10921833   +3.79112441
 H   +0.25245405   +0.54174275   +3.80332172
 H   +0.85103601   -1.09305906   +3.72218392
 H   +0.50171850   -0.88497821   -0.37885798
 H   -1.04088697   +0.00435263   -0.29617119
21
 * E =  +0.029 kcal/mol ; (3) 178_162_229_120
 C   +0.00000000   +0.00000000   +0.00000000
 O   +0.00000000   +0.00000000   +1.41697716
 C   +1.20307162   +0.00000000   +1.98640769
 C   +1.10110231   +0.05697053   +3.48212304
 C   +2.35504696   -0.36955929   +4.16190898
 C   +2.39892513   -1.24472715   +5.15602630
 C   +3.63757785   -1.67000598   +5.86702225
 C   +3.59071382   -1.35781232   +7.35416320
 O   +2.22497011   -0.01222216   +1.35676019
 H   +4.48955038   -1.70682258   +7.85700200
 H   +0.50007796   +0.88593998   -0.37876207
 H   +2.73751960   -1.83894954   +7.82895521
 H   +3.50238643   -0.28718382   +7.52337664
 H   +4.50054311   -1.18809805   +5.41008102
 H   +3.77408402   -2.74468106   +5.73434807
 H   +1.47165520   -1.69106866   +5.50272226
 H   +3.27034496   +0.07571482   +3.79404472
 H   +0.86649147   +1.09722097   +3.72281287
 H   +0.24412942   -0.52914206   +3.80369068
 H   +0.51087398   -0.87987489   -0.37795169
 H   -1.04088300   -0.00622757   -0.29609526
21
 * E =  +0.347 kcal/mol ; (4) 180_309_241_120
 C   +0.00000000   +0.00000000   +0.00000000
 O   +0.00000000   +0.00000000   +1.41659156
 C   +1.20297495   +0.00000000   +1.98705893
 C   +1.10928502   -0.00684676   +3.48527809
 C   +0.20951736   +1.05668162   +4.02390229
 C   +0.61032173   +2.02019434   +4.84144537
 C   -0.26743118   +3.08471907   +5.40430498
 C   -0.30492724   +3.06370051   +6.92398279
 O   +2.22458608   -0.01066083   +1.35719344
 H   -0.92413445   +3.86889577   +7.31218495
 H   +0.51149168   +0.87971047   -0.37761900
 H   +0.69300388   +3.18210006   +7.34193307
 H   -0.70647980   +2.12147435   +7.28941333
 H   -1.27407959   +2.97465002   +5.00346459
 H   +0.09607937   +4.05870767   +5.07205257
 H   +1.65186870   +2.04689456   +5.14619839
 H   -0.82452247   +1.01711567   +3.70579955
 H   +0.73351758   -0.99134848   +3.77101325
 H   +2.11778424   +0.09217338   +3.87215846
 H   +0.49956485   -0.88619514   -0.37873299
 H   -1.04076447   +0.00718420   -0.29661386
21
 * E =  +0.347 kcal/mol ; (5) 180_310_240_239
 C   +0.00000000   +0.00000000   +0.00000000
 O   +0.00000000   +0.00000000   +1.41660033
 C   +1.20276460   +0.00000000   +1.98746420
 C   +1.10881702   -0.00985652   +3.48557442
 C   +0.19427283   +1.03929143   +4.02714906
 C   +0.57808099   +1.99665425   +4.85989420
 C   -0.31165012   +3.05571332   +5.41435522
 C   +0.16009153   +4.45549285   +5.05477797
 O   +2.22456719   -0.00957901   +1.35787726
 H   -0.48472282   +5.21192394   +5.49578353
 H   +0.51439988   +0.87797084   -0.37769389
 H   +0.16290844   +4.59901377   +3.97691852
 H   +1.17215608   +4.63192525   +5.41407248
 H   -0.34593402   +2.96127879   +6.50118987
 H   -1.32831567   +2.89957544   +5.05628423
 H   +1.61886968   +2.03649594   +5.16587396
 H   -0.83718741   +0.99094438   +3.70198542
 H   +0.74711209   -1.00038417   +3.76906933
 H   +2.11586062   +0.10142006   +3.87299314
 H   +0.49657548   -0.88787562   -0.37876038
 H   -1.04074104   +0.01047121   -0.29660462
21
 * E =  +0.383 kcal/mol ; (6) 180_051_120_000
 C   +0.00000000   +0.00000000   +0.00000000
 O   +0.00000000   +0.00000000   +1.41648793
 C   +1.20322370   +0.00000000   +1.98693098
 C   +1.11009606   +0.00733600   +3.48499754
 C   +0.21408446   -1.05975443   +4.02413234
 C   +0.62717858   -2.01453332   +4.84629467
 C   -0.21397304   -3.10388000   +5.42403318
 C   -1.66836923   -3.09149138   +5.00718532
 O   +2.22446067   +0.01002563   +1.35626989
 H   -2.20680919   -3.91575107   +5.46727055
 H   +0.50091169   +0.88540130   -0.37883285
 H   -1.77067719   -3.18824412   +3.92827841
 H   -2.15756571   -2.16679951   +5.30658647
 H   -0.14287740   -3.05178084   +6.51231819
 H   +0.23686868   -4.06153651   +5.15631390
 H   +1.67112921   -2.02386531   +5.14028700
 H   -0.81733279   -1.02170875   +3.70209966
 H   +2.11934409   -0.08727073   +3.87114799
 H   +0.73081696   +0.99070146   +3.77016854
 H   +0.51019857   -0.88042425   -0.37777435
 H   -1.04077520   -0.00561190   -0.29669353
21
 * E =  +1.717 kcal/mol ; (7) 181_111_012_121
 C   +0.00000000   +0.00000000   +0.00000000
 O   +0.00000000   +0.00000000   +1.41663832
 C   +1.20275618   +0.00000000   +1.98570078
 C   +1.11659203   -0.01982922   +3.48005281
 C   +1.57350711   -1.31041122   +4.09377403
 C   +2.23169699   -2.29132080   +3.49340178
 C   +2.65280124   -3.55378105   +4.16484233
 C   +2.05918429   -4.78765249   +3.50427588
 O   +2.22305855   +0.01013941   +1.35099089
 H   +2.40650153   -5.69750211   +3.98822209
 H   +0.51095819   +0.87973852   -0.37842758
 H   +2.34051319   -4.84213455   +2.45437426
 H   +0.97295900   -4.77045557   +3.55491851
 H   +2.37104688   -3.52120500   +5.21668808
 H   +3.74138272   -3.62562407   +4.13503638
 H   +2.49695251   -2.19211494   +2.44750770
 H   +1.33197378   -1.41196495   +5.14524142
 H   +1.73487248   +0.79734846   +3.85246369
 H   +0.09113337   +0.18491299   +3.77534761
 H   +0.50043654   -0.88600344   -0.37792522
 H   -1.04086151   +0.00540210   -0.29594894
21
 * E =  +8.280 kcal/mol ; (8) 357_174_229_240
 C   +0.00000000   +0.00000000   +0.00000000
 O   +0.00000000   +0.00000000   +1.40852437
 C   +1.14245685   +0.00000000   +2.10785322
 C   +2.43379105   -0.07126827   +1.33204848
 C   +3.62438426   +0.08625226   +2.21147901
 C   +4.62168781   +0.92237106   +1.96341111
 C   +5.82428970   +1.09832279   +2.82537303
 C   +5.96372480   +2.52259113   +3.33832747
 O   +1.09068724   +0.02650512   +3.30149356
 H   +6.86190215   +2.63590351   +3.94069954
 H   +0.40868584   +0.92595944   -0.39857758
 H   +5.10816592   +2.79866816   +3.94971407
 H   +6.02565026   +3.23161984   +2.51467647
 H   +6.71690191   +0.83664296   +2.25425131
 H   +5.77400466   +0.40314594   +3.66192488
 H   +4.57238501   +1.55117787   +1.07916422
 H   +3.64324325   -0.52904145   +3.10085777
 H   +2.45220924   -1.04291814   +0.83027063
 H   +2.43858270   +0.67549538   +0.53972866
 H   +0.54836775   -0.84699700   -0.40548127
 H   -1.03906314   -0.08028686   -0.29411159
21
 * E =  +8.326 kcal/mol ; (9) 357_174_229_120
 C   +0.00000000   +0.00000000   +0.00000000
 O   +0.00000000   +0.00000000   +1.40853788
 C   +1.14268658   +0.00000000   +2.10741059
 C   +2.43350157   -0.07388337   +1.33094781
 C   +3.62488427   +0.08821288   +2.20859096
 C   +4.62067459   +0.92493598   +1.95644986
 C   +5.83248036   +1.09277765   +2.80688764
 C   +7.11781480   +0.78610221   +2.05531428
 O   +1.09158898   +0.02750711   +3.30103087
 H   +7.98880332   +0.94823406   +2.68576960
 H   +0.40096909   +0.92955164   -0.39814923
 H   +7.22090853   +1.42271142   +1.17836679
 H   +7.13296145   -0.24741081   +1.71714752
 H   +5.74950119   +0.45392543   +3.68461535
 H   +5.87100574   +2.12035735   +3.17231425
 H   +4.57502625   +1.54198669   +1.06378176
 H   +3.64353211   -0.52092881   +3.10219925
 H   +2.45180280   -1.04824795   +0.83442099
 H   +2.43741857   +0.66875720   +0.53480563
 H   +0.55613261   -0.84198938   -0.40530107
 H   -1.03826192   -0.08915935   -0.29434639
21
 * E =  +8.579 kcal/mol ; (10) 003_086_232_239
 C   +0.00000000   +0.00000000   +0.00000000
 O   +0.00000000   +0.00000000   +1.41054906
 C   +1.13985739   +0.00000000   +2.10735890
 C   +2.45021421   +0.07196678   +1.35920922
 C   +2.81695336   +1.49564582   +1.07509261
 C   +3.14125671   +1.96697049   -0.12119760
 C   +3.52881111   +3.37625167   -0.41053283
 C   +2.61099554   +4.03390364   -1.42846931
 O   +1.09065219   -0.01570296   +3.30284651
 H   +2.93464355   +5.04798163   -1.64939600
 H   +0.59367553   +0.81778900   -0.39830520
 H   +1.58936382   +4.07972532   -1.05849831
 H   +2.60142757   +3.47874059   -2.36474148
 H   +4.55136560   +3.39267500   -0.79132443
 H   +3.53229761   +3.94847404   +0.51577382
 H   +3.12869547   +1.29003705   -0.97094763
 H   +2.82630952   +2.15820836   +1.93221082
 H   +3.18428552   -0.37271208   +2.02624783
 H   +2.43227091   -0.50504624   +0.43821147
 H   +0.36007709   -0.94862980   -0.39262707
 H   -1.03453193   +0.13015410   -0.29282542
21
 * E =  +8.582 kcal/mol ; (11) 003_086_232_120
 C   +0.00000000   +0.00000000   +0.00000000
 O   +0.00000000   +0.00000000   +1.41051849
 C   +1.13956567   +0.00000000   +2.10773770
 C   +2.45043366   +0.07239145   +1.36039441
 C   +2.81548356   +1.49568429   +1.07216218
 C   +3.13591888   +1.96477090   -0.12610869
 C   +3.53859359   +3.36973054   -0.41619109
 C   +4.93797372   +3.46097406   -1.00338525
 O   +1.08980710   -0.01637457   +3.30319634
 H   +5.19780018   +4.49077505   -1.23570772
 H   +0.59332878   +0.81796154   -0.39841952
 H   +5.01607944   +2.88398597   -1.92294623
 H   +5.67736577   +3.07438879   -0.30619897
 H   +3.47572124   +3.96014755   +0.49649321
 H   +2.82890154   +3.80738308   -1.12049312
 H   +3.13296399   +1.28315670   -0.97220267
 H   +2.82302913   +2.16115555   +1.92704676
 H   +3.18446017   -0.36915464   +2.02951289
 H   +2.43404386   -0.50741652   +0.44109399
 H   +0.36010521   -0.94854578   -0.39278123
 H   -1.03458095   +0.12996036   -0.29272163
21
 * E =  +8.591 kcal/mol ; (12) 003_086_232_359
 C   +0.00000000   +0.00000000   +0.00000000
 O   +0.00000000   +0.00000000   +1.41044153
 C   +1.14020584   +0.00000000   +2.10708139
 C   +2.45021834   +0.07381037   +1.35889288
 C   +2.81402980   +1.49840007   +1.07289881
 C   +3.13582639   +1.95980750   -0.12830245
 C   +3.53493024   +3.36001484   -0.45650848
 C   +3.55233978   +4.32045206   +0.71241419
 O   +1.09062141   -0.01691125   +3.30260864
 H   +3.85055343   +5.31341425   +0.38735263
 H   +0.59430655   +0.81734975   -0.39825677
 H   +4.25355780   +3.99783429   +1.47910752
 H   +2.56984092   +4.40287748   +1.17240376
 H   +2.86365182   +3.73531030   -1.23163517
 H   +4.52054451   +3.33216657   -0.92525528
 H   +3.12476876   +1.26834686   -0.96511738
 H   +2.81999556   +2.15818035   +1.93044460
 H   +3.18489661   -0.36890988   +2.02653121
 H   +2.43274740   -0.50501033   +0.43890066
 H   +0.35940821   -0.94884978   -0.39273430
 H   -1.03443956   +0.13081279   -0.29291988
21
 * E =  +8.787 kcal/mol ; (13) 007_078_004_240
 C   +0.00000000   +0.00000000   +0.00000000
 O   +0.00000000   +0.00000000   +1.41105002
 C   +1.14211747   +0.00000000   +2.10798293
 C   +2.43554132   +0.16867176   +1.35597294
 C   +2.70855013   +1.59175190   +0.96993884
 C   +1.96869489   +2.64229989   +1.29719307
 C   +2.28708399   +4.05141937   +0.93144416
 C   +2.47425052   +4.93494614   +2.15452140
 O   +1.09381411   -0.09631888   +3.29923912
 H   +2.67397747   +5.96402094   +1.86585706
 H   +0.59726270   +0.81529732   -0.39924209
 H   +3.30508843   +4.58513365   +2.76224110
 H   +1.58388620   +4.93122252   +2.77982279
 H   +1.47587915   +4.45538993   +0.32321726
 H   +3.18290707   +4.07390716   +0.31207232
 H   +1.07351664   +2.49700800   +1.89438659
 H   +3.60973810   +1.74320072   +0.38783043
 H   +3.22069946   -0.19038684   +2.01647657
 H   +2.45180300   -0.46261741   +0.46752988
 H   +0.35471570   -0.95191132   -0.38937166
 H   -1.03366175   +0.13483776   -0.29361766
21
 * E =  +8.829 kcal/mol ; (14) 007_079_004_121
 C   +0.00000000   +0.00000000   +0.00000000
 O   +0.00000000   +0.00000000   +1.41099230
 C   +1.14211534   +0.00000000   +2.10771808
 C   +2.43613270   +0.16387830   +1.35552315
 C   +2.71508917   +1.58634859   +0.97141993
 C   +1.98360842   +2.64021303   +1.30653592
 C   +2.29938511   +4.04701876   +0.93042413
 C   +1.18636970   +4.69812884   +0.12540080
 O   +1.09374281   -0.09267182   +3.29927862
 H   +1.42251620   +5.73480141   -0.10182217
 H   +0.59761620   +0.81524768   -0.39872379
 H   +0.24684556   +4.68468293   +0.67429419
 H   +1.02827131   +4.17504092   -0.81510766
 H   +3.23326406   +4.07448291   +0.37045457
 H   +2.46394869   +4.62606630   +1.84044075
 H   +1.08500981   +2.49731091   +1.89910594
 H   +3.61609558   +1.73459645   +0.38822958
 H   +3.21969077   -0.19873218   +2.01605688
 H   +2.45053166   -0.46648965   +0.46646896
 H   +0.35449373   -0.95196017   -0.38943834
 H   -1.03356762   +0.13542685   -0.29368215
21
 * E =  +8.835 kcal/mol ; (15) 007_078_005_000
 C   +0.00000000   +0.00000000   +0.00000000
 O   +0.00000000   +0.00000000   +1.41093075
 C   +1.14257297   +0.00000000   +2.10736797
 C   +2.43575356   +0.16585251   +1.35467714
 C   +2.71261607   +1.58821872   +0.96612419
 C   +1.97647970   +2.63713799   +1.30784877
 C   +2.26093363   +4.05890271   +0.95348069
 C   +3.50461189   +4.29060730   +0.12392293
 O   +1.09415408   -0.09401655   +3.29889669
 H   +3.63429593   +5.34919182   -0.08412305
 H   +0.60064254   +0.81300670   -0.39882719
 H   +3.44852936   +3.77043845   -0.83045958
 H   +4.39619421   +3.94344156   +0.64209014
 H   +2.32620798   +4.63051954   +1.88104222
 H   +1.39030439   +4.46344883   +0.43360015
 H   +1.08733993   +2.48042078   +1.90936242
 H   +3.60928111   +1.72968319   +0.37732343
 H   +3.22024885   -0.19451111   +2.01528134
 H   +2.45017744   -0.46678685   +0.46718259
 H   +0.35144038   -0.95315276   -0.38935272
 H   -1.03311480   +0.13867064   -0.29382509
21
 * E =  +9.812 kcal/mol ; (16) 009_083_113_120
 C   +0.00000000   +0.00000000   +0.00000000
 O   +0.00000000   +0.00000000   +1.40887438
 C   +1.13939797   +0.00000000   +2.11369131
 C   +2.44312520   +0.21040989   +1.37937658
 C   +2.70902173   +1.66634620   +1.15206917
 C   +3.69689122   +2.33471570   +1.73024411
 C   +3.97520225   +3.78550432   +1.53986873
 C   +3.90674189   +4.56082141   +2.84604065
 O   +1.08483264   -0.12969231   +3.30035910
 H   +4.14109638   +5.61088913   +2.68921295
 H   +0.55000322   +0.84212026   -0.41118806
 H   +4.61493704   +4.16720035   +3.57236762
 H   +2.91420369   +4.49554005   +3.28466380
 H   +3.27066997   +4.20057733   +0.82029318
 H   +4.97010387   +3.90434310   +1.10733245
 H   +4.35358634   +1.80482109   +2.41226667
 H   +2.04241746   +2.19683766   +0.48208517
 H   +3.21551115   -0.20867146   +2.01493910
 H   +2.44926625   -0.33209394   +0.43508528
 H   +0.40390262   -0.92993880   -0.39426309
 H   -1.03922623   +0.08317626   -0.29334881
21
 * E =  +9.816 kcal/mol ; (17) 009_083_112_000
 C   +0.00000000   +0.00000000   +0.00000000
 O   +0.00000000   +0.00000000   +1.40878403
 C   +1.13969423   +0.00000000   +2.11340329
 C   +2.44352431   +0.20773908   +1.37869418
 C   +2.71118773   +1.66351192   +1.14911926
 C   +3.69617173   +2.32522743   +1.74055110
 C   +4.01429944   +3.77237071   +1.56778168
 C   +3.11075025   +4.53085007   +0.62056042
 O   +1.08480050   -0.12800130   +3.30031274
 H   +3.41316158   +5.57235189   +0.55384633
 H   +0.55131428   +0.84130784   -0.41110258
 H   +2.07635375   +4.50751611   +0.95734684
 H   +3.14698307   +4.11081605   -0.38283028
 H   +5.05097751   +3.85743223   +1.23625793
 H   +3.99216557   +4.24260333   +2.55266303
 H   +4.34005907   +1.78223265   +2.42296507
 H   +2.04894284   +2.18734080   +0.47208979
 H   +3.21492273   -0.21237949   +2.01481555
 H   +2.44837015   -0.33616877   +0.43520035
 H   +0.40263617   -0.93046872   -0.39434699
 H   -1.03910103   +0.08470106   -0.29343700
21
 * E = +10.623 kcal/mol ; (18) 358_177_000_121
 C   +0.00000000   +0.00000000   +0.00000000
 O   +0.00000000   +0.00000000   +1.40764058
 C   +1.13347975   +0.00000000   +2.12757164
 C   +2.41739726   -0.03799407   +1.34685048
 C   +3.71682736   +0.03110420   +2.08174001
 C   +3.95081611   +0.13149988   +3.38325033
 C   +5.32129296   +0.20131829   +3.96603608
 C   +5.54636066   +1.47908314   +4.75867062
 O   +1.04270551   +0.01788341   +3.31903163
 H   +6.53655336   +1.49300089   +5.20822794
 H   +0.43658233   +0.91193517   -0.40158252
 H   +4.81561076   +1.57529611   +5.55906958
 H   +5.45219418   +2.35406952   +4.11964685
 H   +6.06604259   +0.11535711   +3.17502577
 H   +5.46790063   -0.65416319   +4.62787088
 H   +3.12230928   +0.17415386   +4.07414548
 H   +4.57233247   -0.00961509   +1.41575147
 H   +2.39943813   -0.94987873   +0.74446336
 H   +2.38459445   +0.76903758   +0.61203902
 H   +0.52086822   -0.86415851   -0.40594358
 H   -1.04144435   -0.04848964   -0.29291894
