22
 * E =  +0.000 kcal/mol ; (1) 180_179_000_120
 C   +0.00000000   +0.00000000   +0.00000000
 O   +0.00000000   +0.00000000   +1.41750143
 C   +1.20305282   +0.00000000   +1.98781139
 C   +1.06303401   +0.00577484   +3.48504176
 C   +2.30924452   -0.02286769   +4.27218480
 C   +3.59801968   -0.04769519   +4.01773084
 C   +4.68258716   -0.08004748   +5.04499584
 C   +5.56104824   -1.31260403   +4.91017490
 O   +2.22310606   -0.00173456   +1.35737143
 H   +6.36865682   -1.29779208   +5.63830725
 H   +0.50522888   +0.88313453   -0.37801302
 H   +6.00684740   -1.36954186   +3.91909215
 H   +4.98236510   -2.22011436   +5.06507830
 H   +4.24752475   -0.03447637   +6.04120074
 H   +5.29980398   +0.81199962   +4.92861810
 H   +3.90882418   -0.05552388   +2.97641294
 H   +1.97880797   -0.02563029   +5.65443771
 H   +0.47200596   +0.88570435   +3.74399379
 H   +0.42812876   -0.84112854   +3.74884492
 H   +0.50473905   -0.88342950   -0.37793915
 H   -1.04107133   +0.00027349   -0.29513440
 H   +1.75362476   -0.02938643   +6.50132471
22
 * E =  +0.082 kcal/mol ; (2) 179_175_120_119
 C   +0.00000000   +0.00000000   +0.00000000
 O   +0.00000000   +0.00000000   +1.41710248
 C   +1.20415710   +0.00000000   +1.98488685
 C   +1.08457320   +0.01337912   +3.48384526
 C   +2.38063811   -0.10289906   +4.17202376
 C   +3.00385315   +0.68532845   +5.01782185
 C   +4.33287544   +0.42975234   +5.64795961
 C   +5.35088092   +1.49781308   +5.28430573
 O   +2.22678309   -0.00559169   +1.36093535
 H   +6.30251137   +1.31241783   +5.77664275
 H   +0.50814208   +0.88141177   -0.37833436
 H   +5.00835847   +2.48614329   +5.58559901
 H   +5.52166173   +1.51835375   +4.21097474
 H   +4.69267171   -0.55103948   +5.34560598
 H   +4.21137780   +0.40275440   +6.73181238
 H   +2.52640398   +1.63125912   +5.27709363
 H   +3.05845639   -1.33435439   +3.85812844
 H   +0.57913001   +0.93981405   +3.76793101
 H   +0.40848009   -0.79371698   +3.76646927
 H   +0.50280017   -0.88469132   -0.37765484
 H   -1.04084351   +0.00301806   -0.29612159
 H   +3.45017706   -2.08412423   +3.68247596
22
 * E =  +0.119 kcal/mol ; (3) 180_184_240_121
 C   +0.00000000   +0.00000000   +0.00000000
 O   +0.00000000   +0.00000000   +1.41710421
 C   +1.20424457   +0.00000000   +1.98484823
 C   +1.08438553   -0.01157339   +3.48378226
 C   +2.38102239   +0.09334727   +4.17278216
 C   +2.99764589   -0.70194021   +5.01682716
 C   +4.31919775   -0.44982109   +5.66348843
 C   +4.22669248   -0.44213894   +7.18003203
 O   +2.22683141   +0.00521370   +1.36093416
 H   +5.20563141   -0.29466386   +7.62968757
 H   +0.50271776   +0.88473181   -0.37767956
 H   +3.82832403   -1.38339644   +7.55454593
 H   +3.57266587   +0.35505949   +7.52526510
 H   +4.72261750   +0.49394860   +5.30396979
 H   +5.01534886   -1.22898536   +5.35005985
 H   +2.50662676   -1.63885202   +5.28343810
 H   +3.06455326   +1.32449802   +3.87003044
 H   +0.41616395   +0.80253016   +3.76516958
 H   +0.56981489   -0.93262143   +3.76878709
 H   +0.50822948   -0.88135857   -0.37832860
 H   -1.04084248   -0.00311564   -0.29612530
 H   +3.45757939   +2.07571569   +3.70422900
22
 * E =  +0.188 kcal/mol ; (4) 180_310_248_121
 C   +0.00000000   +0.00000000   +0.00000000
 O   +0.00000000   +0.00000000   +1.41698583
 C   +1.19810459   +0.00000000   +1.98689897
 C   +1.10544893   -0.00967222   +3.48823430
 C   +0.19846855   +1.02161043   +4.03376844
 C   +0.43577879   +2.10366801   +4.74216904
 C   -0.58453285   +3.06583216   +5.25397941
 C   -0.55386893   +3.18469704   +6.76849456
 O   +2.22551919   -0.01244640   +1.36696760
 H   -1.27822474   +3.91699649   +7.11668243
 H   +0.51238491   +0.87944881   -0.37684108
 H   +0.42822546   +3.49724353   +7.11847174
 H   -0.78480828   +2.23122251   +7.23736650
 H   -1.57233658   +2.75772544   +4.91900890
 H   -0.39360129   +4.04564668   +4.81386628
 H   +1.47275296   +2.32614589   +4.99610715
 H   -1.19352699   +0.75480075   +3.77200636
 H   +0.76359751   -1.00305342   +3.78366203
 H   +2.11501841   +0.12108683   +3.87343896
 H   +0.49829829   -0.88708935   -0.37824501
 H   -1.04095129   +0.00879855   -0.29513291
 H   -2.03067337   +0.58469871   +3.65074391
22
 * E =  +0.200 kcal/mol ; (5) 179_049_112_120
 C   +0.00000000   +0.00000000   +0.00000000
 O   +0.00000000   +0.00000000   +1.41700682
 C   +1.19823805   +0.00000000   +1.98654629
 C   +1.10741327   +0.01330560   +3.48793304
 C   +0.18420226   -1.00032514   +4.03908369
 C   +0.40408136   -2.07837321   +4.75911658
 C   -0.62969172   -3.02965997   +5.26436182
 C   -0.41440563   -4.44020993   +4.74157979
 O   +2.22540215   +0.01112478   +1.36611301
 H   -1.15500718   -5.12393393   +5.14935177
 H   +0.49802478   +0.88724860   -0.37823257
 H   +0.56996948   -4.81511647   +5.01551730
 H   -0.48918299   -4.46727738   +3.65724221
 H   -1.61810868   -2.67115714   +4.98623045
 H   -0.59305448   -3.04247586   +6.35461169
 H   +1.43827359   -2.32040247   +5.00648249
 H   -1.20330885   -0.71980240   +3.76562240
 H   +2.11543960   -0.13254583   +3.87184689
 H   +0.78354995   +1.01341710   +3.78130590
 H   +0.51272600   -0.87922022   -0.37690678
 H   -1.04095836   -0.00906218   -0.29511911
 H   -2.03765300   -0.54362899   +3.63497604
22
 * E =  +0.535 kcal/mol ; (6) 180_291_010_120
 C   +0.00000000   +0.00000000   +0.00000000
 O   +0.00000000   +0.00000000   +1.41761395
 C   +1.20245234   +0.00000000   +1.98545147
 C   +1.11283817   -0.00300124   +3.48627147
 C   +0.58457896   +1.26244708   +4.04509251
 C   +0.01721591   +2.33441835   +3.54040544
 C   -0.42629837   +3.53535571   +4.31020253
 C   +0.27462905   +4.80217918   +3.84902790
 O   +2.22488789   +0.00336823   +1.35803578
 H   -0.08761138   +5.66902462   +4.39644176
 H   +0.51062609   +0.87973623   -0.37908580
 H   +0.10267605   +4.98292562   +2.78960643
 H   +1.34853892   +4.72907032   +4.00206734
 H   -0.25043417   +3.37274540   +5.37124593
 H   -1.50316924   +3.65509892   +4.18340979
 H   -0.14819006   +2.37029313   +2.46459151
 H   +0.76221635   +1.28754341   +5.45626090
 H   +0.47825371   -0.83282543   +3.79786656
 H   +2.11533787   -0.18771030   +3.86241335
 H   +0.50126683   -0.88573401   -0.37736359
 H   -1.04086913   +0.00445005   -0.29574513
 H   +0.88307265   +1.29190954   +6.32089426
22
 * E =  +0.558 kcal/mol ; (7) 180_291_009_239
 C   +0.00000000   +0.00000000   +0.00000000
 O   +0.00000000   +0.00000000   +1.41760148
 C   +1.20238642   +0.00000000   +1.98544188
 C   +1.11265914   -0.00269199   +3.48629112
 C   +0.58050421   +1.26109366   +4.04506163
 C   +0.02515614   +2.33850006   +3.53858426
 C   -0.43555755   +3.53158603   +4.31048602
 C   -1.92035739   +3.79622833   +4.12665319
 O   +2.22488780   +0.00297889   +1.35809545
 H   -2.22681174   +4.68878996   +4.66675843
 H   +0.51065266   +0.87970740   -0.37912339
 H   -2.51175239   +2.95986965   +4.49125645
 H   -2.16618279   +3.94283748   +3.07655748
 H   +0.12803896   +4.40367801   +3.97610316
 H   -0.20475674   +3.39415507   +5.36454636
 H   -0.13845130   +2.37509201   +2.46245095
 H   +0.73231319   +1.27446067   +5.45949068
 H   +0.48079303   -0.83449676   +3.79806384
 H   +2.11574046   -0.18423104   +3.86255895
 H   +0.50122226   -0.88574924   -0.37738581
 H   -1.04087542   +0.00452631   -0.29572005
 H   +0.83294102   +1.26993517   +6.32670031
22
 * E =  +0.830 kcal/mol ; (8) 181_187_241_000
 C   +0.00000000   +0.00000000   +0.00000000
 O   +0.00000000   +0.00000000   +1.41698049
 C   +1.20441763   +0.00000000   +1.98466115
 C   +1.08594589   -0.01858697   +3.48366532
 C   +2.38022201   +0.13926008   +4.17166515
 C   +3.01336606   -0.66627945   +4.99535140
 C   +4.32383654   -0.46819733   +5.68372906
 C   +5.02468864   +0.84232140   +5.40550890
 O   +2.22664089   +0.00635498   +1.35988780
 H   +5.96923193   +0.88790688   +5.94155169
 H   +0.50298081   +0.88460329   -0.37763732
 H   +4.41889803   +1.68899361   +5.71925072
 H   +5.23153336   +0.96027565   +4.34488298
 H   +4.97276302   -1.30027379   +5.40435504
 H   +4.16029418   -0.58179239   +6.75706827
 H   +2.52685777   -1.61916613   +5.20580989
 H   +2.90907568   +1.43348085   +3.81488165
 H   +0.38360161   +0.76496177   +3.76783273
 H   +0.61334675   -0.96253327   +3.76550770
 H   +0.50798491   -0.88145510   -0.37852296
 H   -1.04083416   -0.00278936   -0.29621655
 H   +3.11983208   +2.22721898   +3.55243775
22
 * E =  +1.005 kcal/mol ; (9) 177_160_004_000
 C   +0.00000000   +0.00000000   +0.00000000
 O   +0.00000000   +0.00000000   +1.41755108
 C   +1.20303808   +0.00000000   +1.98721970
 C   +1.07113256   +0.06425069   +3.48284054
 C   +2.23899564   -0.37216843   +4.27751540
 C   +3.45970374   -0.76404520   +3.98588627
 C   +4.54752335   -1.19311828   +4.91707691
 C   +4.21798198   -1.18379462   +6.39245828
 O   +2.22225722   -0.01930920   +1.35450160
 H   +5.07479434   -1.51538280   +6.97359753
 H   +0.50802671   +0.88147523   -0.37832209
 H   +3.38402129   -1.84458983   +6.61672453
 H   +3.94775964   -0.18687144   +6.73211376
 H   +5.41314091   -0.55554263   +4.72815979
 H   +4.86320937   -2.19371194   +4.61588097
 H   +3.72074219   -0.77287160   +2.93121677
 H   +1.79891075   -0.30039916   +5.63111822
 H   +0.82577999   +1.10140473   +3.72397759
 H   +0.18672958   -0.50626335   +3.76192942
 H   +0.50231872   -0.88497170   -0.37731660
 H   -1.04105884   +0.00308827   -0.29508238
 H   +1.41512334   -0.21505487   +6.41134245
22
 * E =  +1.065 kcal/mol ; (10) 181_313_251_001
 C   +0.00000000   +0.00000000   +0.00000000
 O   +0.00000000   +0.00000000   +1.41686001
 C   +1.19817656   +0.00000000   +1.98625665
 C   +1.11213784   -0.01885777   +3.48787113
 C   +0.14629516   +0.95179332   +4.04998853
 C   +0.36506438   +2.06480937   +4.71760169
 C   -0.61935277   +3.03446458   +5.28480635
 C   -2.07880808   +2.69520395   +5.08266199
 O   +2.22494675   -0.00852115   +1.36462596
 H   -2.70999281   +3.46625332   +5.51696210
 H   +0.51062561   +0.88037752   -0.37711915
 H   -2.33351217   +1.74829807   +5.55196713
 H   -2.32288981   +2.61444052   +4.02626503
 H   -0.40438137   +4.01415989   +4.85381621
 H   -0.40819087   +3.14066318   +6.35045286
 H   +1.41011280   +2.32877644   +4.88094185
 H   -1.19373938   +0.46225521   +3.81702501
 H   +0.83590620   -1.03390524   +3.77888786
 H   +2.11483670   +0.16900522   +3.86653287
 H   +0.50010437   -0.88601809   -0.37839021
 H   -1.04101214   +0.00654963   -0.29511701
 H   -1.94471765   +0.07129368   +3.66728172
22
 * E =  +1.082 kcal/mol ; (11) 179_021_237_000
 C   +0.00000000   +0.00000000   +0.00000000
 O   +0.00000000   +0.00000000   +1.41698497
 C   +1.19869541   +0.00000000   +1.98233703
 C   +1.13854488   +0.02551911   +3.48644948
 C   -0.12669963   -0.43869411   +4.08760282
 C   -0.95891721   +0.16513259   +4.90725140
 C   -2.22151232   -0.34991759   +5.51659783
 C   -2.60390884   -1.76590547   +5.14928539
 O   +2.22416854   +0.00749035   +1.35752615
 H   -3.53418510   -2.04573837   +5.63689998
 H   +0.49786496   +0.88752331   -0.37771999
 H   -1.83773081   -2.47426241   +5.45487715
 H   -2.74045246   -1.87166763   +4.07594499
 H   -3.02650434   +0.33364294   +5.24024742
 H   -2.13133013   -0.26001025   +6.60072310
 H   -0.70359474   +1.18852886   +5.18320585
 H   -0.34876039   -1.78912839   +3.64613509
 H   +1.98636687   -0.56233511   +3.83217313
 H   +1.33605442   +1.05729584   +3.78855918
 H   +0.51366243   -0.87871690   -0.37676366
 H   -1.04099842   -0.00964247   -0.29515840
 H   -0.37592959   -2.59273878   +3.32512695
22
 * E =  +1.491 kcal/mol ; (12) 180_073_355_000
 C   +0.00000000   +0.00000000   +0.00000000
 O   +0.00000000   +0.00000000   +1.41730478
 C   +1.20237821   +0.00000000   +1.98562367
 C   +1.11071879   -0.00452156   +3.48542591
 C   +0.67344234   -1.30972133   +4.03868565
 C   +0.26729094   -2.42914978   +3.48163688
 C   -0.13961526   -3.70974481   +4.13601321
 C   -0.08185804   -3.73640450   +5.64650584
 O   +2.22483596   -0.00293452   +1.35784645
 H   -0.39361550   -4.70867560   +6.01927226
 H   +0.50125546   +0.88562617   -0.37767321
 H   -0.73594778   -2.98456309   +6.08126593
 H   +0.92575794   -3.54541245   +6.00752579
 H   +0.48885980   -4.50383591   +3.72890895
 H   -1.15103172   -3.94712041   +3.80121642
 H   +0.20933120   -2.44037452   +2.39420382
 H   +0.76817180   -1.18264101   +5.45836473
 H   +2.09622449   +0.24899421   +3.86690488
 H   +0.41636348   +0.77456748   +3.79909481
 H   +0.51061597   -0.87971765   -0.37934618
 H   -1.04083151   -0.00476107   -0.29583926
 H   +0.86394528   -0.99186192   +6.30137101
22
 * E =  +7.562 kcal/mol ; (13) 352_282_352_120
 C   +0.00000000   +0.00000000   +0.00000000
 O   +0.00000000   +0.00000000   +1.41190114
 C   +1.13906483   +0.00000000   +2.10893470
 C   +2.43602420   -0.18662959   +1.35400484
 C   +2.64558514   -1.60921393   +0.99414269
 C   +2.01454266   -2.71846638   +1.31154402
 C   +2.39074000   -4.09825297   +0.88187843
 C   +2.69785311   -4.99949450   +2.06627249
 O   +1.09863075   +0.09505295   +3.29976016
 H   +2.93432472   -6.00772830   +1.73536563
 H   +0.36550624   +0.94773068   -0.38908902
 H   +1.84830181   -5.06163751   +2.74324621
 H   +3.54503380   -4.62077148   +2.63246669
 H   +3.24640324   -4.05021481   +0.21190844
 H   +1.56522228   -4.52596198   +0.31124229
 H   +1.14605832   -2.64431422   +1.96729157
 H   +3.78869754   -1.77404265   +0.15644432
 H   +2.46324962   +0.43240710   +0.45786744
 H   +3.23047676   +0.15349360   +2.01254097
 H   +0.58739325   -0.82258882   -0.39869677
 H   -1.03523746   -0.12315679   -0.29250272
 H   +4.48731090   -1.86547095   -0.35541150
22
 * E =  +7.597 kcal/mol ; (14) 352_282_352_239
 C   +0.00000000   +0.00000000   +0.00000000
 O   +0.00000000   +0.00000000   +1.41186244
 C   +1.13897648   +0.00000000   +2.10892286
 C   +2.43630453   -0.18375678   +1.35385048
 C   +2.64925892   -1.60616309   +0.99539355
 C   +2.02530905   -2.71737529   +1.31975508
 C   +2.39745393   -4.09539203   +0.88149239
 C   +1.27255946   -4.78285329   +0.12614013
 O   +1.09835612   +0.09271163   +3.29992918
 H   +1.54956123   -5.79885378   -0.14379280
 H   +0.36377853   +0.94838821   -0.38910655
 H   +1.03191879   -4.24562677   -0.78833675
 H   +0.36824982   -4.83435104   +0.72928199
 H   +2.64700771   -4.68373734   +1.76526376
 H   +3.29471722   -4.05285051   +0.26807136
 H   +1.15232176   -2.64424543   +1.96956984
 H   +3.78280025   -1.76732217   +0.14413176
 H   +2.46246635   +0.43471861   +0.45736254
 H   +3.22984381   +0.15832975   +2.01252452
 H   +0.58892777   -0.82164608   -0.39843917
 H   -1.03498318   -0.12525090   -0.29252935
 H   +4.47275245   -1.85597996   -0.37980172
22
 * E =  +8.436 kcal/mol ; (15) 359_178_001_121
 C   +0.00000000   +0.00000000   +0.00000000
 O   +0.00000000   +0.00000000   +1.40886770
 C   +1.13343541   +0.00000000   +2.12293341
 C   +2.42354635   -0.02764192   +1.33784224
 C   +3.67386799   +0.01643488   +2.11912229
 C   +4.01025915   +0.06289338   +3.38819430
 C   +5.40967971   +0.10572341   +3.90922526
 C   +5.67143391   +1.35123031   +4.73951955
 O   +1.06097916   +0.01488813   +3.31477628
 H   +6.68027015   +1.34400283   +5.14531655
 H   +0.45269706   +0.90406932   -0.40082631
 H   +4.97663329   +1.41884968   +5.57416458
 H   +5.55485208   +2.24992033   +4.13854981
 H   +6.11401802   +0.04873792   +3.08186298
 H   +5.57655223   -0.77690884   +4.52826804
 H   +3.21056117   +0.08120470   +4.12305431
 H   +4.76927858   +0.00635651   +1.21571556
 H   +2.41657442   -0.92540318   +0.71538407
 H   +2.41005864   +0.80313159   +0.62954975
 H   +0.50541125   -0.87405205   -0.40392054
 H   -1.04204244   -0.03037421   -0.29238445
 H   +5.42864429   +0.00245723   +0.63691188
22
 * E =  +8.652 kcal/mol ; (16) 359_176_119_119
 C   +0.00000000   +0.00000000   +0.00000000
 O   +0.00000000   +0.00000000   +1.40862914
 C   +1.13939493   +0.00000000   +2.11219214
 C   +2.43214005   -0.02997906   +1.32873831
 C   +3.61629189   +0.06670967   +2.19838318
 C   +4.62699155   -0.74718642   +2.39953547
 C   +5.77283124   -0.51745061   +3.32832079
 C   +5.84668236   -1.57862553   +4.41364525
 O   +1.09018745   +0.01754691   +3.30406698
 H   +6.70338577   -1.41241741   +5.06225163
 H   +0.42470784   +0.91813207   -0.39995618
 H   +5.94364819   -2.57418069   +3.98429823
 H   +4.94878890   -1.56672291   +5.02605816
 H   +5.68268534   +0.47037967   +3.77418253
 H   +6.70067504   -0.52361837   +2.75453067
 H   +4.63019370   -1.69716004   +1.86320113
 H   +3.65144172   +1.30425742   +2.94194981
 H   +2.46993199   -0.95614766   +0.74773956
 H   +2.42346651   +0.78179200   +0.59973996
 H   +0.53250673   -0.85753299   -0.40467664
 H   -1.04030974   -0.06214447   -0.29384886
 H   +3.67751468   +2.05291036   +3.36647057
22
 * E =  +8.701 kcal/mol ; (17) 359_176_119_238
 C   +0.00000000   +0.00000000   +0.00000000
 O   +0.00000000   +0.00000000   +1.40860371
 C   +1.13942913   +0.00000000   +2.11223447
 C   +2.43205992   -0.02873136   +1.32863495
 C   +3.61675705   +0.06361003   +2.19806766
 C   +4.62590270   -0.75294431   +2.39629140
 C   +5.78334318   -0.51960209   +3.30931148
 C   +7.11329166   -0.55638048   +2.57572410
 O   +1.09031106   +0.01744156   +3.30406230
 H   +7.94270069   -0.42192511   +3.26574268
 H   +0.42681742   +0.91709977   -0.40007498
 H   +7.16613931   +0.23036386   +1.82686524
 H   +7.25620868   -1.50838440   +2.06756051
 H   +5.77742718   -1.28927787   +4.08220112
 H   +5.65613319   +0.43397504   +3.81633526
 H   +4.63325003   -1.69587022   +1.84767712
 H   +3.66055924   +1.30354577   +2.93737111
 H   +2.46919022   -0.95246955   +0.74380785
 H   +2.42389061   +0.78621744   +0.60316135
 H   +0.53044862   -0.85882085   -0.40467582
 H   -1.04045169   -0.05974809   -0.29384967
 H   +3.69382560   +2.05513413   +3.35596620
22
 * E =  +8.766 kcal/mol ; (18) 005_080_231_120
 C   +0.00000000   +0.00000000   +0.00000000
 O   +0.00000000   +0.00000000   +1.41090065
 C   +1.13611080   +0.00000000   +2.11121891
 C   +2.44864500   +0.11623441   +1.36414276
 C   +2.74540634   +1.51363693   +0.97506271
 C   +3.07458638   +2.06004233   -0.17551147
 C   +3.39832533   +3.49884551   -0.40838701
 C   +4.80624327   +3.68882249   -0.94764144
 O   +1.08989596   -0.06694932   +3.30346334
 H   +5.00873812   +4.73877340   -1.14356072
 H   +0.56757489   +0.83502330   -0.39925720
 H   +4.94797105   +3.14420933   -1.87931324
 H   +5.54578276   +3.32875397   -0.23672362
 H   +3.27106557   +4.05215819   +0.51910281
 H   +2.68283474   +3.90996741   -1.12206104
 H   +3.14204741   +1.40888138   -1.04885210
 H   +2.71739509   +2.41629257   +2.09346765
 H   +3.20545612   -0.24628899   +2.05428834
 H   +2.46309979   -0.52193351   +0.47858301
 H   +0.38810985   -0.93800269   -0.39167250
 H   -1.03817573   +0.09778617   -0.29200484
 H   +2.71653052   +2.96000139   +2.76700772
22
 * E =  +8.773 kcal/mol ; (19) 005_080_231_239
 C   +0.00000000   +0.00000000   +0.00000000
 O   +0.00000000   +0.00000000   +1.41093189
 C   +1.13625505   +0.00000000   +2.11112034
 C   +2.44834588   +0.11820874   +1.36375441
 C   +2.74499753   +1.51714077   +0.98011825
 C   +3.07499051   +2.06770327   -0.16818434
 C   +3.38259977   +3.51022310   -0.39929936
 C   +2.44752056   +4.14184219   -1.41697967
 O   +1.09025571   -0.06787898   +3.30331370
 H   +2.71466657   +5.17975518   -1.59897281
 H   +0.56921362   +0.83385786   -0.39940165
 H   +1.41807660   +4.11590550   -1.06759951
 H   +2.49002824   +3.61732079   -2.36990224
 H   +4.41023547   +3.59607536   -0.75489056
 H   +3.33046500   +4.04644338   +0.54531124
 H   +3.12891113   +1.42233486   -1.04675677
 H   +2.70787963   +2.41694611   +2.10091605
 H   +3.20571026   -0.24715595   +2.05184478
 H   +2.46229762   -0.51651916   +0.47573629
 H   +0.38633733   -0.93882052   -0.39147857
 H   -1.03798717   +0.09969953   -0.29207227
 H   +2.69698682   +2.95971478   +2.77502195
22
 * E =  +9.435 kcal/mol ; (20) 002_183_358_000
 C   +0.00000000   +0.00000000   +0.00000000
 O   +0.00000000   +0.00000000   +1.40892339
 C   +1.13323685   +0.00000000   +2.12396801
 C   +2.42104735   +0.04279861   +1.33806634
 C   +3.68448506   -0.03139936   +2.10173400
 C   +4.00406407   -0.09748222   +3.37531260
 C   +5.36531192   -0.16842973   +3.98817439
 C   +6.54022925   -0.16365397   +3.03699594
 O   +1.05718197   -0.02245129   +3.31578815
 H   +7.47446335   -0.21826905   +3.59011175
 H   +0.52118792   +0.86417350   -0.40490060
 H   +6.55969824   +0.74143652   +2.43463546
 H   +6.50352275   -1.01095820   +2.35644369
 H   +5.39768913   -1.06404086   +4.61124074
 H   +5.45301743   +0.66446719   +4.68816196
 H   +3.17525273   -0.10173535   +4.07645260
 H   +4.69408020   -0.01699326   +1.09973386
 H   +2.39954521   -0.76429901   +0.60334374
 H   +2.41381016   +0.95883667   +0.74238303
 H   +0.43616089   -0.91257404   -0.39996603
 H   -1.04142336   +0.04898295   -0.29219026
 H   +5.21127825   -0.00265144   +0.39303909
22
 * E =  +9.614 kcal/mol ; (21) 355_280_128_000
 C   +0.00000000   +0.00000000   +0.00000000
 O   +0.00000000   +0.00000000   +1.41070510
 C   +1.13662359   +0.00000000   +2.11100241
 C   +2.44879921   -0.12155112   +1.36499349
 C   +2.74628552   -1.52319607   +0.98045346
 C   +3.06714799   -2.03560454   -0.18948525
 C   +3.40204371   -3.44858863   -0.53985418
 C   +3.36862053   -4.44179890   +0.59950555
 O   +1.08941857   +0.07072439   +3.30311907
 H   +3.61853850   -5.43655476   +0.24016669
 H   +0.39059463   +0.93696746   -0.39178026
 H   +2.38353204   -4.48699109   +1.05722316
 H   +4.08071492   -4.17638767   +1.37670438
 H   +4.39026574   -3.44984100   -1.00341186
 H   +2.71845433   -3.76732187   -1.32923080
 H   +3.10325400   -1.33909672   -1.02866593
 H   +2.69887755   -2.33588910   +2.17164933
 H   +2.46430791   +0.51253545   +0.47691058
 H   +3.20528959   +0.24340198   +2.05428591
 H   +0.56566639   -0.83632260   -0.39919802
 H   -1.03841668   -0.09502849   -0.29218597
 H   +2.65581026   -2.73094854   +2.93724919
