22
 * E =  +0.000 kcal/mol ; (1) 178_165_244_354
 C   +0.00000000   +0.00000000   +0.00000000
 C   +0.00000000   +0.00000000   +1.50062519
 O   +1.23928625   +0.00000000   +1.98485680
 O   -0.97629391   +0.02680599   +2.19856427
 C   +1.33835913   +0.05293610   +3.39755354
 H   +2.39731397   +0.04626279   +3.62038946
 H   +0.87342385   +0.95792097   +3.77587464
 H   +0.84800784   -0.80660594   +3.84340475
 C   -1.33411909   -0.36557120   -0.56009212
 C   -1.53998283   -1.47118795   -1.28833617
 C   -2.85123983   -1.92579332   -1.82727068
 C   -4.04788124   -1.10787058   -1.39263280
 H   +0.29405231   +1.00549417   -0.30488779
 H   -2.17435931   +0.20054839   -0.18451183
 H   -0.67938112   -2.06789017   -1.56914638
 H   -2.78526824   -1.93090281   -2.91834258
 H   -2.99324419   -2.97167418   -1.54784728
 H   -4.96175589   -1.50628751   -1.82497414
 H   -4.15875400   -1.11551425   -0.31041818
 H   -3.95263727   -0.07234180   -1.71273346
 H   +0.78295097   -0.66593255   -0.35390069
 H   -1.40629902   +0.95900136   -2.02199557
22
 * E =  +0.074 kcal/mol ; (2) 178_164_244_116
 C   +0.00000000   +0.00000000   +0.00000000
 C   +0.00000000   +0.00000000   +1.50068233
 O   +1.23914398   +0.00000000   +1.98485642
 O   -0.97662549   +0.02689504   +2.19802389
 C   +1.33823436   +0.05210383   +3.39769476
 H   +2.39715493   +0.04355064   +3.62053275
 H   +0.87477921   +0.95769753   +3.77635551
 H   +0.84629123   -0.80683964   +3.84291090
 C   -1.32790537   -0.38762534   -0.56001716
 C   -1.52427384   -1.49186937   -1.29294004
 C   -2.84325833   -1.93192125   -1.81917535
 C   -2.87812598   -1.93756812   -3.34031164
 H   +0.27634233   +1.01060978   -0.30447224
 H   -2.18195569   +0.15831201   -0.18192506
 H   -0.66229098   -2.08014865   -1.59023746
 H   -3.05936919   -2.93701056   -1.45259324
 H   -3.62451748   -1.28168827   -1.42917727
 H   -3.84347684   -2.27677731   -3.70801024
 H   -2.69608385   -0.94006879   -3.73309744
 H   -2.11618953   -2.59952905   -3.74738729
 H   +0.79319968   -0.65271653   -0.35523095
 H   -1.42122317   +0.94771458   -2.00907462
22
 * E =  +0.116 kcal/mol ; (3) 182_208_156_356
 C   +0.00000000   +0.00000000   +0.00000000
 C   +0.00000000   +0.00000000   +1.49886513
 O   +1.23449424   +0.00000000   +1.99162731
 O   -0.98243714   -0.03921748   +2.18808697
 C   +1.32180371   -0.05563438   +3.40519487
 H   +2.37881651   -0.04610189   +3.63682146
 H   +0.82492920   +0.80206596   +3.84708371
 H   +0.85601588   -0.96260893   +3.77771207
 C   -1.21558204   +0.65265440   -0.57460486
 C   -1.24880283   +1.19125650   -1.79980931
 C   -2.44582292   +1.79525736   -2.44905655
 C   -3.73141552   +1.69434589   -1.65740137
 H   +0.91959788   +0.44561585   -0.36652486
 H   -2.12527301   +0.51781274   -0.00600019
 H   -0.32353659   +1.25509256   -2.36140269
 H   -2.22435572   +2.84533631   -2.65575972
 H   -2.57595827   +1.33609932   -3.43132340
 H   -4.55000905   +2.16598924   -2.19433257
 H   -4.00551812   +0.65685280   -1.47744840
 H   -3.63784457   +2.18707501   -0.69199914
 H   +0.02351971   -1.05332130   -0.29126388
 H   -1.05840335   +2.34044749   +0.49781963
22
 * E =  +0.136 kcal/mol ; (4) 183_207_157_117
 C   +0.00000000   +0.00000000   +0.00000000
 C   +0.00000000   +0.00000000   +1.49887066
 O   +1.23476285   +0.00000000   +1.99073790
 O   -0.98212538   -0.03947859   +2.18839793
 C   +1.32325780   -0.05650737   +3.40426145
 H   +2.38049769   -0.04876576   +3.63487595
 H   +0.82826047   +0.80180139   +3.84706827
 H   +0.85637545   -0.96293301   +3.77669721
 C   -1.22328789   +0.63606888   -0.57625357
 C   -1.27709877   +1.16146224   -1.80628961
 C   -2.50224902   +1.73918881   -2.42117250
 C   -2.35060487   +3.22457147   -2.71354249
 H   +0.91363881   +0.45757842   -0.36667533
 H   -2.13332464   +0.50125816   -0.00568833
 H   -0.36182445   +1.24132454   -2.38372200
 H   -2.72217843   +1.21324654   -3.35217280
 H   -3.35148954   +1.57367332   -1.76013396
 H   -3.24822061   +3.62534610   -3.17826205
 H   -2.16500912   +3.78012948   -1.79750783
 H   -1.51674138   +3.40800357   -3.38848552
 H   +0.03779301   -1.05279746   -0.29163615
 H   -1.06003790   +2.33246678   +0.48699066
22
 * E =  +0.136 kcal/mol ; (5) 178_163_244_235
 C   +0.00000000   +0.00000000   +0.00000000
 C   +0.00000000   +0.00000000   +1.50069851
 O   +1.23899625   +0.00000000   +1.98537556
 O   -0.97671245   +0.02706011   +2.19799176
 C   +1.33718836   +0.05315217   +3.39821335
 H   +2.39589619   +0.04104199   +3.62191760
 H   +0.87674156   +0.96083811   +3.77556254
 H   +0.84166000   -0.80347228   +3.84388922
 C   -1.32667188   -0.39307886   -0.55923550
 C   -1.52083523   -1.50339636   -1.28271639
 C   -2.84044676   -1.96484006   -1.78813355
 C   -3.16165494   -3.38816287   -1.36044270
 H   +0.27346577   +1.01126079   -0.30482760
 H   -2.18166828   +0.15738208   -0.19006403
 H   -0.65862184   -2.09863074   -1.56540648
 H   -3.61829515   -1.28446726   -1.44549907
 H   -2.83939888   -1.91226939   -2.87916346
 H   -4.11431976   -3.71319199   -1.77142870
 H   -2.39763588   -4.08260747   -1.70480900
 H   -3.21626649   -3.46512366   -0.27736645
 H   +0.79524361   -0.65048698   -0.35482493
 H   -1.40665411   +0.93761064   -2.02126416
22
 * E =  +0.208 kcal/mol ; (6) 182_208_156_236
 C   +0.00000000   +0.00000000   +0.00000000
 C   +0.00000000   +0.00000000   +1.49889524
 O   +1.23434836   +0.00000000   +1.99156710
 O   -0.98260599   -0.03923276   +2.18782184
 C   +1.32147806   -0.05574718   +3.40523714
 H   +2.37835029   -0.04143823   +3.63718330
 H   +0.82025005   +0.79938260   +3.84713703
 H   +0.85985444   -0.96511181   +3.77712205
 C   -1.21541028   +0.65234880   -0.57522120
 C   -1.26011423   +1.18838890   -1.80086357
 C   -2.48074289   +1.76488666   -2.42511169
 C   -2.80995260   +1.12616049   -3.76520741
 H   +0.91933403   +0.44574031   -0.36685513
 H   -2.12782537   +0.52424393   -0.00688599
 H   -0.34421891   +1.25373153   -2.37918901
 H   -3.32168827   +1.65925001   -1.74164535
 H   -2.33117942   +2.83698165   -2.57060966
 H   -3.68330346   +1.59172750   -4.21545785
 H   -1.98159064   +1.23075974   -4.46338826
 H   -3.01443291   +0.06429956   -3.65081696
 H   +0.02310413   -1.05317712   -0.29171627
 H   -1.03273194   +2.33982086   +0.49880584
22
 * E =  +0.321 kcal/mol ; (7) 180_308_257_355
 C   +0.00000000   +0.00000000   +0.00000000
 C   +0.00000000   +0.00000000   +1.50132353
 O   +1.23652678   +0.00000000   +1.99450715
 O   -0.98011796   -0.01439892   +2.19391368
 C   +1.32609095   -0.00830417   +3.40836055
 H   +2.38350844   -0.00100566   +3.63855391
 H   +0.83798326   +0.86810350   +3.82288216
 H   +0.85288673   -0.89775756   +3.81236876
 C   +0.85292781   +1.09239266   -0.56783397
 C   +0.34085316   +2.21841913   -1.08375483
 C   +1.12572707   +3.37066272   -1.60644356
 C   +2.62430221   +3.27196494   -1.42157335
 H   +0.36918375   -0.97315589   -0.32277093
 H   +1.91270007   +1.02077353   -0.36822396
 H   -0.73533192   +2.28809390   -1.19223362
 H   +0.89332539   +3.48326854   -2.66840002
 H   +0.75099798   +4.28280944   -1.13772767
 H   +3.11945689   +4.14840483   -1.83068962
 H   +2.88913579   +3.20129730   -0.36853533
 H   +3.02586200   +2.39663606   -1.92791687
 H   -1.03110755   +0.09304935   -0.32299548
 H   +1.34933781   +0.17974348   -2.25171666
22
 * E =  +0.334 kcal/mol ; (8) 180_049_141_356
 C   +0.00000000   +0.00000000   +0.00000000
 C   +0.00000000   +0.00000000   +1.49968378
 O   +1.23678025   +0.00000000   +1.99179019
 O   -0.98066337   +0.03329479   +2.19034657
 C   +1.32642875   -0.00723699   +3.40537380
 H   +2.38384028   -0.01047119   +3.63572860
 H   +0.84669820   +0.87383326   +3.81990103
 H   +0.84482199   -0.89304441   +3.80737870
 C   +0.90251141   -1.02465613   -0.61315114
 C   +0.57149923   -1.72494574   -1.70634073
 C   +1.44726219   -2.70369129   -2.40857409
 C   +2.85582405   -2.81791480   -1.86775746
 H   -1.02670952   -0.12402522   -0.32661517
 H   +1.91623177   -1.04615516   -0.23808256
 H   -0.43674217   -1.62821455   -2.09218402
 H   +0.95930012   -3.68077800   -2.36920445
 H   +1.47482394   -2.44482635   -3.46900052
 H   +3.42241847   -3.55730992   -2.42719498
 H   +3.38555675   -1.87000639   -1.93867722
 H   +2.85167165   -3.12243557   -0.82321545
 H   +0.33017457   +0.99467672   -0.30811975
 H   +0.63087299   -2.46459621   +0.73973014
22
 * E =  +0.355 kcal/mol ; (9) 180_309_257_116
 C   +0.00000000   +0.00000000   +0.00000000
 C   +0.00000000   +0.00000000   +1.50152792
 O   +1.23655028   +0.00000000   +1.99405775
 O   -0.98020421   -0.01505603   +2.19382568
 C   +1.32753678   -0.00804291   +3.40791243
 H   +2.38516975   +0.00099693   +3.63695062
 H   +0.83853015   +0.86768609   +3.82273745
 H   +0.85626900   -0.89829186   +3.81241852
 C   +0.86237730   +1.08390956   -0.56896912
 C   +0.37014200   +2.21801562   -1.08613876
 C   +1.19866234   +3.33911450   -1.60325115
 C   +0.99132374   +3.56218576   -3.09406724
 H   +0.35995354   -0.97683164   -0.32207646
 H   +1.92341427   +1.00717437   -0.37066405
 H   -0.70392988   +2.31075554   -1.20670282
 H   +0.94107585   +4.25377364   -1.06617053
 H   +2.24930271   +3.13992711   -1.39770885
 H   +1.59140899   +4.39536145   -3.45157422
 H   +1.26983346   +2.67550932   -3.65846106
 H   -0.05077340   +3.78378822   -3.31559011
 H   -1.03002203   +0.10243274   -0.32353607
 H   +1.34578134   +0.15560986   -2.24872047
22
 * E =  +0.372 kcal/mol ; (10) 180_048_141_117
 C   +0.00000000   +0.00000000   +0.00000000
 C   +0.00000000   +0.00000000   +1.49971085
 O   +1.23653512   +0.00000000   +1.99211676
 O   -0.98104711   +0.03402051   +2.18972670
 C   +1.32560599   -0.00515373   +3.40582641
 H   +2.38291906   -0.01002987   +3.63654522
 H   +0.84745802   +0.87757308   +3.81862808
 H   +0.84210921   -0.88935543   +3.80903679
 C   +0.91021358   -1.01599984   -0.61535092
 C   +0.59857317   -1.71283031   -1.71614850
 C   +1.50954600   -2.67620409   -2.38990223
 C   +0.96066369   -4.09504239   -2.36244145
 H   -1.02555446   -0.13209735   -0.32699687
 H   +1.92414337   -1.03895804   -0.23709689
 H   -0.40661925   -1.63353854   -2.11625117
 H   +1.65614135   -2.37004087   -3.42735885
 H   +2.48810745   -2.64502224   -1.91314963
 H   +1.63072409   -4.78326546   -2.87188364
 H   +0.83345998   -4.43860891   -1.33872755
 H   -0.00866874   -4.14945565   -2.85396358
 H   +0.32183286   +0.99750680   -0.30793964
 H   +0.62808087   -2.46159581   +0.73462775
22
 * E =  +0.434 kcal/mol ; (11) 180_308_257_235
 C   +0.00000000   +0.00000000   +0.00000000
 C   +0.00000000   +0.00000000   +1.50143818
 O   +1.23646825   +0.00000000   +1.99448260
 O   -0.98021722   -0.01451313   +2.19379256
 C   +1.32607590   -0.00804572   +3.40840085
 H   +2.38347199   +0.00045195   +3.63857612
 H   +0.83691072   +0.86784392   +3.82272314
 H   +0.85382941   -0.89800902   +3.81239939
 C   +0.85333506   +1.09170278   -0.56819532
 C   +0.35186357   +2.22356742   -1.08057547
 C   +1.16802637   +3.36220883   -1.57798704
 C   +0.79480316   +4.67985485   -0.91704912
 H   +0.36744970   -0.97372312   -0.32277975
 H   +1.91597456   +1.02010381   -0.37680427
 H   -0.72391253   +2.31332309   -1.18805355
 H   +2.22436653   +3.14846020   -1.42233048
 H   +1.02534928   +3.45326337   -2.65701311
 H   +1.38010894   +5.50005102   -1.32536101
 H   -0.25672415   +4.91230784   -1.07319402
 H   +0.96908259   +4.64098968   +0.15547997
 H   -1.03088744   +0.09473199   -0.32312760
 H   +1.32964420   +0.16030741   -2.25264782
22
 * E =  +0.435 kcal/mol ; (12) 180_048_141_235
 C   +0.00000000   +0.00000000   +0.00000000
 C   +0.00000000   +0.00000000   +1.49971520
 O   +1.23673084   +0.00000000   +1.99159976
 O   -0.98074422   +0.03382323   +2.19015572
 C   +1.32679612   -0.00635408   +3.40525379
 H   +2.38426302   -0.01081932   +3.63524582
 H   +0.84834283   +0.87568225   +3.81918155
 H   +0.84411510   -0.89125621   +3.80792909
 C   +0.90817490   -1.01818645   -0.61516619
 C   +0.59242407   -1.71978249   -1.71153098
 C   +1.50647088   -2.66950823   -2.39964630
 C   +1.69083226   -2.34085184   -3.87280418
 H   -1.02583413   -0.12997165   -0.32694454
 H   +1.92286198   -1.04127130   -0.23901726
 H   -0.41130759   -1.63453120   -2.11415511
 H   +2.47024726   -2.67874222   -1.89290723
 H   +1.09849803   -3.67863411   -2.30959730
 H   +2.33225109   -3.07230243   -4.35823556
 H   +0.73652040   -2.33779573   -4.39585008
 H   +2.14114864   -1.35928893   -3.99993167
 H   +0.32415658   +0.99672259   -0.30795917
 H   +0.62322139   -2.45804330   +0.74193762
22
 * E =  +1.384 kcal/mol ; (13) 181_116_033_117
 C   +0.00000000   +0.00000000   +0.00000000
 C   +0.00000000   +0.00000000   +1.49735169
 O   +1.23141740   +0.00000000   +1.99565759
 O   -0.98379950   +0.00306656   +2.18882514
 C   +1.31370240   -0.01644208   +3.41006002
 H   +0.81905541   +0.85468254   +3.82798232
 H   +0.84302140   -0.91143239   +3.80439056
 H   +2.36999114   -0.00631677   +3.64459721
 C   -0.60198814   -1.24049570   -0.60288915
 C   -1.60204631   -1.96553407   -0.08699870
 C   -2.19735073   -3.14962639   -0.76280010
 C   -1.99232778   -4.42650190   +0.03892569
 H   -0.57390590   +0.86900036   -0.32326135
 H   -0.28912737   -1.44170811   -1.61997604
 H   -1.97262021   -1.72360907   +0.90096931
 H   -3.26760863   -2.98339792   -0.89845857
 H   -1.76812807   -3.26108750   -1.75777985
 H   -2.45306639   -5.27772814   -0.45660141
 H   -0.93281246   -4.63762760   +0.16268029
 H   -2.43189008   -4.33971617   +1.03042720
 H   +1.01861028   +0.12491797   -0.35111795
 H   +0.96403224   -2.43621260   -0.14984343
22
 * E =  +1.478 kcal/mol ; (14) 180_119_035_236
 C   +0.00000000   +0.00000000   +0.00000000
 C   +0.00000000   +0.00000000   +1.49764205
 O   +1.23208227   +0.00000000   +1.99463334
 O   -0.98263138   +0.00782594   +2.19059685
 C   +1.31570798   -0.00826395   +3.40911457
 H   +2.37225677   -0.00147716   +3.64261332
 H   +0.82543132   +0.86763735   +3.82222923
 H   +0.84115923   -0.89867337   +3.80908919
 C   -0.66873523   -1.20362021   -0.60762201
 C   -1.73769870   -1.84435706   -0.12005912
 C   -2.40284032   -2.98403449   -0.80658214
 C   -3.88469834   -2.73649371   -1.04166235
 H   -0.52274405   +0.90176264   -0.32115588
 H   -0.32912994   -1.45043650   -1.60589300
 H   -2.13188028   -1.55133030   +0.84461256
 H   -1.90097365   -3.18940411   -1.75141656
 H   -2.28704615   -3.87968275   -0.19245863
 H   -4.35572539   -3.59949257   -1.50614139
 H   -4.40110157   -2.53903695   -0.10458167
 H   -4.03813105   -1.87748989   -1.69055243
 H   +1.02437060   +0.07113354   -0.34890938
 H   +0.79964189   -2.49459060   -0.05792683
22
 * E =  +1.484 kcal/mol ; (15) 181_186_034_356
 C   +0.00000000   +0.00000000   +0.00000000
 C   +0.00000000   +0.00000000   +1.50034311
 O   +1.25239939   +0.00000000   +1.95790443
 O   -0.95448101   -0.01521952   +2.22612855
 C   +1.38243894   -0.03321549   +3.36785020
 H   +2.44612436   -0.02760096   +3.56727981
 H   +0.90567228   +0.83452489   +3.81296218
 H   +0.92289717   -0.93068058   +3.76995309
 C   -1.32459813   +0.14578728   -0.67863327
 C   -2.35701914   +0.87282202   -0.23684895
 C   -3.64253538   +1.06593419   -0.96496571
 C   -3.71853707   +0.44879925   -2.34427463
 H   +0.68750780   +0.78269077   -0.32256402
 H   -1.35683392   -0.25336460   -1.68317794
 H   -2.30500535   +1.30347770   +0.75300610
 H   -4.44305170   +0.66380444   -0.33949307
 H   -3.84499089   +2.13736371   -1.02540684
 H   -4.69008168   +0.63443200   -2.79437264
 H   -2.96146108   +0.86313402   -3.00751518
 H   -3.57312922   -0.62875767   -2.30110739
 H   +0.47466145   -0.93297090   -0.30201436
 H   -1.98016013   -1.71435820   -0.16222090
22
 * E =  +2.250 kcal/mol ; (16) 180_278_026_116
 C   +0.00000000   +0.00000000   +0.00000000
 C   +0.00000000   +0.00000000   +1.49842244
 O   +1.23656527   +0.00000000   +1.99595928
 O   -0.97983614   +0.00180285   +2.19056202
 C   +1.31920100   +0.00847886   +3.41055420
 H   +2.37545838   +0.00533617   +3.64601725
 H   +0.83895060   +0.89475634   +3.81381983
 H   +0.83257459   -0.86998112   +3.82253984
 C   +0.18489777   +1.36306010   -0.60591278
 C   +0.79935702   +2.40535324   -0.03145653
 C   +1.00751558   +3.71884955   -0.69801979
 C   +0.25602573   +4.83940254   +0.00544303
 H   +0.79417544   -0.65655463   -0.35372892
 H   -0.05103395   +1.42102135   -1.66121242
 H   +1.11078278   +2.33377752   +1.00364819
 H   +2.07330361   +3.95423697   -0.70766105
 H   +0.69138690   +3.65429145   -1.73831203
 H   +0.42878879   +5.79418981   -0.48529505
 H   -0.81358679   +4.64443996   +0.00547011
 H   +0.57583524   +4.93497697   +1.04116521
 H   -0.95178916   -0.41440137   -0.31616780
 H   -1.70095876   +1.94618297   -0.41622684
22
 * E =  +2.296 kcal/mol ; (17) 180_277_027_355
 C   +0.00000000   +0.00000000   +0.00000000
 C   +0.00000000   +0.00000000   +1.49833656
 O   +1.23635485   +0.00000000   +1.99730807
 O   -0.98010908   +0.00225525   +2.19016187
 C   +1.31662806   +0.00685579   +3.41198316
 H   +2.37248060   +0.00108661   +3.64929521
 H   +0.83764450   +0.89378019   +3.81534656
 H   +0.82717571   -0.87088466   +3.82214914
 C   +0.15596495   +1.36728257   -0.60613173
 C   +0.76708473   +2.41008367   -0.02922227
 C   +0.97113321   +3.74510535   -0.65836376
 C   +0.54311195   +3.85918502   -2.10519714
 H   +0.80534280   -0.64196430   -0.35486134
 H   -0.10106565   +1.42007959   -1.65516429
 H   +1.09619721   +2.31960195   +0.99799642
 H   +0.43321208   +4.48411491   -0.05934649
 H   +2.02460986   +4.01458011   -0.55995430
 H   +0.72560955   +4.86262835   -2.48007221
 H   +1.09242507   +3.16428004   -2.73753204
 H   -0.51871024   +3.65078057   -2.21917055
 H   -0.94455968   -0.43191328   -0.31458187
 H   -1.73398712   +1.92920869   -0.38177635
22
 * E =  +2.374 kcal/mol ; (18) 180_278_028_235
 C   +0.00000000   +0.00000000   +0.00000000
 C   +0.00000000   +0.00000000   +1.49835775
 O   +1.23641022   +0.00000000   +1.99673412
 O   -0.98008023   +0.00112702   +2.19011228
 C   +1.31762347   +0.00706952   +3.41148378
 H   +2.37366358   +0.00625354   +3.64801878
 H   +0.83452517   +0.89153756   +3.81523716
 H   +0.83294195   -0.87323472   +3.82181940
 C   +0.19441383   +1.36224574   -0.60608394
 C   +0.85091201   +2.38741902   -0.04842504
 C   +1.08333026   +3.69334043   -0.72127895
 C   +2.55344702   +4.07938526   -0.75797034
 H   +0.78811046   -0.66361830   -0.35418902
 H   -0.08059918   +1.43294403   -1.65104421
 H   +1.20702188   +2.29842419   +0.97082977
 H   +0.67756867   +3.66104981   -1.73152396
 H   +0.52596440   +4.46725438   -0.18904065
 H   +2.68959794   +5.05390311   -1.22054715
 H   +2.97062913   +4.12732205   +0.24597762
 H   +3.13345131   +3.35306219   -1.32226021
 H   -0.95552025   -0.40670098   -0.31445434
 H   -1.68195218   +1.97107270   -0.34046900
22
 * E =  +8.219 kcal/mol ; (19) 357_174_245_355
 C   +0.00000000   +0.00000000   +0.00000000
 C   +0.00000000   +0.00000000   +1.50853075
 O   +1.18796040   +0.00000000   +2.12571621
 O   -0.99677219   +0.02520666   +2.16756723
 C   +2.39397563   -0.05366420   +1.39933367
 H   +3.18397372   +0.03218291   +2.13486009
 H   +2.50176273   -1.00054989   +0.87497566
 H   +2.47815845   +0.76843952   +0.69269128
 C   -1.38357806   -0.13405458   -0.54264076
 C   -1.78680625   -1.19463298   -1.25405185
 C   -3.16487598   -1.42246936   -1.76861212
 C   -4.19295052   -0.39949397   -1.33701203
 H   +0.45915677   +0.93414532   -0.32891173
 H   -2.10733064   +0.57363006   -0.16608252
 H   -1.04790324   -1.93736504   -1.53377856
 H   -3.11742506   -1.46092654   -2.85991423
 H   -3.48261234   -2.42152418   -1.46367784
 H   -5.16883932   -0.63982222   -1.75001009
 H   -4.28654380   -0.36804376   -0.25370619
 H   -3.92323991   +0.59722572   -1.68018002
 H   +0.63847071   -0.79876485   -0.37398077
 H   -1.22508201   +1.17070144   -2.02282611
22
 * E =  +8.307 kcal/mol ; (20) 357_174_244_117
 C   +0.00000000   +0.00000000   +0.00000000
 C   +0.00000000   +0.00000000   +1.50861718
 O   +1.18785379   +0.00000000   +2.12568653
 O   -0.99700211   +0.02594078   +2.16712247
 C   +2.39405259   -0.05312917   +1.39953084
 H   +3.18383161   +0.03198181   +2.13536124
 H   +2.50193923   -0.99956683   +0.87438575
 H   +2.47845609   +0.76969922   +0.69376915
 C   -1.38265901   -0.14044636   -0.54342144
 C   -1.78725342   -1.19614758   -1.26133527
 C   -3.17076333   -1.39196991   -1.76814655
 C   -3.22375277   -1.41995689   -3.28841497
 H   +0.45431846   +0.93652590   -0.32870315
 H   -2.11581061   +0.55814184   -0.16442695
 H   -1.05342070   -1.93915395   -1.55665737
 H   -3.56510264   -2.33197247   -1.37828050
 H   -3.81271668   -0.60080115   -1.38486959
 H   -4.23954909   -1.58092440   -3.64091607
 H   -2.86483391   -0.48129870   -3.70384786
 H   -2.60309041   -2.21978114   -3.68790237
 H   +0.64136322   -0.79562586   -0.37534115
 H   -1.22712354   +1.17531311   -2.01103948
22
 * E =  +8.761 kcal/mol ; (21) 003_191_164_117
 C   +0.00000000   +0.00000000   +0.00000000
 C   +0.00000000   +0.00000000   +1.50706033
 O   +1.18629535   +0.00000000   +2.12570758
 O   -0.99668926   -0.04677193   +2.16495992
 C   +2.39411215   +0.07290259   +1.40428296
 H   +3.18145589   -0.05942645   +2.13580359
 H   +2.46874242   -0.71479194   +0.65821500
 H   +2.51419682   +1.04352961   +0.92821139
 C   -1.35666787   +0.26246233   -0.57154839
 C   -1.56380686   +0.61642430   -1.84560656
 C   -2.90637638   +0.82026329   -2.45297628
 C   -3.11632296   +2.25580154   -2.91104994
 H   +0.72869544   +0.70764463   -0.38766482
 H   -2.19103932   -0.01269508   +0.05945722
 H   -0.70989223   +0.84062806   -2.47719289
 H   -3.02107854   +0.15261716   -3.30904214
 H   -3.67447762   +0.54162641   -1.73348176
 H   -4.09471331   +2.38078916   -3.36856429
 H   -3.04404201   +2.94275929   -2.07142767
 H   -2.36703520   +2.54675545   -3.64493074
 H   +0.34767423   -0.99071042   -0.30660503
 H   -1.55526106   +2.04545086   +0.32606038
22
 * E =  +8.783 kcal/mol ; (22) 008_079_358_355
 C   +0.00000000   +0.00000000   +0.00000000
 C   +0.00000000   +0.00000000   +1.50767473
 O   +1.17376655   +0.00000000   +2.14716333
 O   -1.00968671   -0.03278397   +2.14830430
 C   +2.38927810   +0.16855289   +1.44881357
 H   +3.17263014   -0.01364838   +2.17399474
 H   +2.48401367   -0.53843600   +0.62862972
 H   +2.48415672   +1.18562438   +1.07501190
 C   +0.25260533   -1.35645313   -0.59880144
 C   +0.49880222   -2.47122820   +0.10661406
 C   +0.66530454   -3.83512990   -0.46627985
 C   +0.41886816   -3.95297663   -1.95439525
 H   -0.99191665   +0.33286631   -0.29194013
 H   +0.00952779   -1.43663093   -1.64928647
 H   +0.63897443   -2.39158752   +1.17884450
 H   +1.67657908   -4.17743035   -0.23243574
 H   +0.00593562   -4.51445153   +0.07703191
 H   +0.56971434   -4.97624818   -2.28681432
 H   -0.59964664   -3.66828694   -2.21071100
 H   +1.09889889   -3.31744943   -2.51828167
 H   +0.71377909   +0.72210756   -0.39467294
 H   +2.01270830   -1.09251988   -1.38981435
22
 * E =  +8.856 kcal/mol ; (23) 008_080_358_118
 C   +0.00000000   +0.00000000   +0.00000000
 C   +0.00000000   +0.00000000   +1.50784505
 O   +1.17365253   +0.00000000   +2.14718087
 O   -1.00986548   -0.03297947   +2.14805292
 C   +2.38918081   +0.16867782   +1.44889195
 H   +3.17243159   -0.00706145   +2.17574278
 H   +2.48679209   -0.54293348   +0.63306098
 H   +2.48118734   +1.18389883   +1.06941545
 C   +0.24888801   -1.35825358   -0.59514173
 C   +0.48961400   -2.47702112   +0.10546710
 C   +0.64989260   -3.82445096   -0.50139528
 C   +2.03500117   -4.40225003   -0.25171698
 H   -0.99133257   +0.33425721   -0.29243661
 H   +0.00728103   -1.44575052   -1.64677378
 H   +0.63534123   -2.41025743   +1.17873669
 H   -0.09933991   -4.49593694   -0.07888851
 H   +0.45487178   -3.76883308   -1.57134205
 H   +2.12699557   -5.39516229   -0.68455007
 H   +2.80213432   -3.76901917   -0.69148171
 H   +2.23893051   -4.48410423   +0.81392208
 H   +0.71561567   +0.71964687   -0.39562980
 H   +2.01031871   -1.09738815   -1.38824040
22
 * E =  +8.861 kcal/mol ; (24) 003_191_164_236
 C   +0.00000000   +0.00000000   +0.00000000
 C   +0.00000000   +0.00000000   +1.50707541
 O   +1.18618354   +0.00000000   +2.12603399
 O   -0.99673983   -0.04737788   +2.16487590
 C   +2.39439838   +0.07264404   +1.40533364
 H   +3.18126326   -0.05786872   +2.13770717
 H   +2.47032810   -0.71634202   +0.66076366
 H   +2.51428200   +1.04254483   +0.92775529
 C   -1.35524975   +0.26893210   -0.57216631
 C   -1.55916575   +0.63279579   -1.84378100
 C   -2.89923605   +0.82602281   -2.45928060
 C   -3.09890930   -0.02227348   -3.70531190
 H   +0.73208916   +0.70384516   -0.38798189
 H   -2.19160920   -0.00560863   +0.05639321
 H   -0.70317899   +0.84851116   -2.47556016
 H   -3.67043901   +0.60204600   -1.72423237
 H   -3.01868744   +1.87888025   -2.72404023
 H   -4.07072742   +0.16703813   -4.15458170
 H   -2.33964210   +0.19562533   -4.45414479
 H   -3.03693283   -1.08191398   -3.46914299
 H   +0.34284331   -0.99261100   -0.30600908
 H   -1.54783651   +2.04780575   +0.33595762
22
 * E =  +9.558 kcal/mol ; (25) 352_276_267_356
 C   +0.00000000   +0.00000000   +0.00000000
 C   +0.00000000   +0.00000000   +1.51159712
 O   +1.17500245   +0.00000000   +2.15287654
 O   -1.00931391   +0.03577519   +2.15114056
 C   +2.39319524   -0.16614173   +1.46435813
 H   +3.17031615   -0.03425714   +2.20699079
 H   +2.47439094   -1.16519271   +1.04207048
 H   +2.52569737   +0.57519356   +0.68094870
 C   +0.14948454   +1.39895300   -0.52584665
 C   -0.90319551   +2.17181608   -0.82483701
 C   -0.84290135   +3.58880909   -1.27501394
 C   +0.53834889   +4.20577760   -1.30394252
 H   +0.77680396   -0.64681682   -0.39917014
 H   +1.13447639   +1.84335585   -0.48018711
 H   -1.88982175   +1.72641978   -0.78386069
 H   -1.29273644   +3.64568531   -2.26920695
 H   -1.50174550   +4.17750899   -0.63373225
 H   +0.49127458   +5.23372976   -1.65242503
 H   +0.98958580   +4.21260253   -0.31370229
 H   +1.19976531   +3.65872271   -1.97298656
 H   -0.96144499   -0.40389056   -0.29720773
 H   +0.75604570   +0.88010334   -2.35240153
22
 * E =  +9.633 kcal/mol ; (26) 352_276_269_119
 C   +0.00000000   +0.00000000   +0.00000000
 C   +0.00000000   +0.00000000   +1.51193773
 O   +1.17452208   +0.00000000   +2.15359823
 O   -1.00982895   +0.03428081   +2.15065093
 C   +2.39369502   -0.15692901   +1.46468262
 H   +3.16993438   -0.02448449   +2.20811786
 H   +2.48014139   -1.15358643   +1.03783857
 H   +2.52247848   +0.58900611   +0.68504483
 C   +0.14175482   +1.39910888   -0.52704565
 C   -0.90843776   +2.18335794   -0.80311748
 C   -0.81368343   +3.59847269   -1.24658527
 C   -1.42199445   +3.81072760   -2.62481657
 H   +0.77913390   -0.64340081   -0.39980717
 H   +1.12824431   +1.84552666   -0.50406722
 H   -1.90244622   +1.75345200   -0.75168728
 H   -1.33472683   +4.23061604   -0.52529956
 H   +0.22866104   +3.91404542   -1.24389913
 H   -1.36246017   +4.85532295   -2.91984080
 H   -0.90288676   +3.21662440   -3.37303244
 H   -2.47064252   +3.52090732   -2.63838318
 H   -0.96001817   -0.40777051   -0.29649406
 H   +0.70545983   +0.85985528   -2.36480054
22
 * E =  +9.669 kcal/mol ; (27) 352_278_014_353
 C   +0.00000000   +0.00000000   +0.00000000
 C   +0.00000000   +0.00000000   +1.50633924
 O   +1.17915030   +0.00000000   +2.14177823
 O   -1.00486399   +0.03433470   +2.15251759
 C   +2.39374284   -0.15939227   +1.44199551
 H   +3.17692484   +0.01388204   +2.16969314
 H   +2.49072431   -1.17140170   +1.05495401
 H   +2.48821838   +0.56184540   +0.63405014
 C   +0.19737538   +1.36959783   -0.59009801
 C   +0.61343910   +2.44919813   +0.09045207
 C   +0.85728657   +3.79559030   -0.49740516
 C   +0.76732579   +3.87554794   -2.00573061
 H   +0.76526375   -0.66961474   -0.39199391
 H   +0.17659574   +1.39928411   -1.67095454
 H   +0.70016217   +2.38549620   +1.16937034
 H   +0.13890376   +4.48746782   -0.05072223
 H   +1.83419706   +4.14879689   -0.16179960
 H   +0.95792458   +4.88928944   -2.34694069
 H   +1.49632401   +3.22284344   -2.48258835
 H   -0.22179261   +3.58884715   -2.35667567
 H   -0.96334692   -0.39693734   -0.30353926
 H   -1.66420998   +1.84700510   -0.79882808
22
 * E =  +9.685 kcal/mol ; (28) 352_276_268_236
 C   +0.00000000   +0.00000000   +0.00000000
 C   +0.00000000   +0.00000000   +1.51177794
 O   +1.17503401   +0.00000000   +2.15273681
 O   -1.00934463   +0.03554553   +2.15119811
 C   +2.39324790   -0.16389313   +1.46368832
 H   +3.17031657   -0.03403828   +2.20672282
 H   +2.47478975   -1.16164984   +1.03845900
 H   +2.52561030   +0.58003775   +0.68273709
 C   +0.14657792   +1.39933555   -0.52537220
 C   -0.90065395   +2.18180881   -0.81613526
 C   -0.80485025   +3.60272472   -1.24017937
 C   -1.60719662   +4.52993191   -0.34006304
 H   +0.77770621   -0.64567529   -0.39906495
 H   +1.13232926   +1.84663501   -0.49067221
 H   -1.89538329   +1.75295606   -0.76943758
 H   +0.24008852   +3.90896930   -1.26140633
 H   -1.17626558   +3.69112428   -2.26328050
 H   -1.54803433   +5.55729293   -0.69053158
 H   -2.65682378   +4.24458197   -0.32049567
 H   -1.23765553   +4.49746444   +0.68167569
 H   -0.96096715   -0.40483956   -0.29739686
 H   +0.73525358   +0.85398080   -2.35587787
22
 * E =  +9.794 kcal/mol ; (29) 352_278_014_233
 C   +0.00000000   +0.00000000   +0.00000000
 C   +0.00000000   +0.00000000   +1.50652725
 O   +1.17903064   +0.00000000   +2.14185763
 O   -1.00514204   +0.03474265   +2.15212993
 C   +2.39367333   -0.16294304   +1.44275780
 H   +3.17680139   +0.01078091   +2.17039370
 H   +2.48913000   -1.17605479   +1.05825291
 H   +2.48997081   +0.55661384   +0.63348847
 C   +0.19858265   +1.37024002   -0.58729803
 C   +0.62470960   +2.45064417   +0.08470977
 C   +0.87599686   +3.77723394   -0.53758213
 C   +2.26248138   +4.31862502   -0.22809263
 H   +0.76547332   -0.66905877   -0.39265702
 H   +0.16749249   +1.40929815   -1.66896854
 H   +0.72884355   +2.39743502   +1.16361645
 H   +0.72877158   +3.71004967   -1.61456781
 H   +0.12855203   +4.48158698   -0.16628373
 H   +2.39958437   +5.30753409   -0.65819278
 H   +2.42046804   +4.39943932   +0.84548489
 H   +3.03570100   +3.66757980   -0.62974579
 H   -0.96331655   -0.39667847   -0.30372251
 H   -1.67251446   +1.84236390   -0.77510807
22
 * E =  +9.982 kcal/mol ; (30) 357_175_036_117
 C   +0.00000000   +0.00000000   +0.00000000
 C   +0.00000000   +0.00000000   +1.50641125
 O   +1.20080963   +0.00000000   +2.10385623
 O   -0.97691749   +0.01804061   +2.19325326
 C   +2.40224498   -0.06966373   +1.37281075
 H   +3.19582408   +0.01511664   +2.10473498
 H   +2.50022929   -1.02163690   +0.85559610
 H   +2.49205077   +0.74613748   +0.65935746
 C   -1.33018638   -0.11461116   -0.67727834
 C   -2.49195843   +0.40877912   -0.27013153
 C   -3.75319878   +0.31365348   -1.05329539
 C   -4.82565042   -0.47109384   -0.31217496
 H   +0.49965482   +0.91601455   -0.32602097
 H   -1.28242797   -0.52890986   -1.67708400
 H   -2.55521924   +0.86259305   +0.70839037
 H   -4.12540081   +1.32016789   -1.25417634
 H   -3.55421791   -0.14636386   -2.02073188
 H   -5.74834380   -0.50906874   -0.88632663
 H   -4.49749627   -1.49060376   -0.12561005
 H   -5.04805683   -0.01514357   +0.65006129
 H   +0.64407829   -0.80998115   -0.33883916
 H   -1.58899080   -2.06848506   -0.12953229
22
 * E = +10.026 kcal/mol ; (31) 357_176_039_356
 C   +0.00000000   +0.00000000   +0.00000000
 C   +0.00000000   +0.00000000   +1.50726514
 O   +1.20102011   +0.00000000   +2.10473553
 O   -0.97693085   +0.01509033   +2.19386196
 C   +2.40223830   -0.06689350   +1.37324122
 H   +3.19595432   +0.00696051   +2.10623082
 H   +2.49690898   -1.01357141   +0.84582778
 H   +2.49575088   +0.75609509   +0.66854999
 C   -1.33572485   -0.09312358   -0.67028599
 C   -2.46092180   +0.50975716   -0.27152427
 C   -3.76016910   +0.45869222   -0.99862854
 C   -3.74985948   -0.27352404   -2.32252303
 H   +0.51768516   +0.90502834   -0.32754639
 H   -1.31217356   -0.56764980   -1.64165044
 H   -2.46940279   +1.02021752   +0.68028372
 H   -4.49463621   +0.00057439   -0.33217149
 H   -4.11240893   +1.48237805   -1.14196125
 H   -4.73903360   -0.26557439   -2.77235018
 H   -3.06195125   +0.18889711   -3.02805474
 H   -3.45205825   -1.31237369   -2.19498208
 H   +0.62845572   -0.82353742   -0.33576228
 H   -1.68550788   -2.00308612   -0.01124964
22
 * E = +10.082 kcal/mol ; (32) 357_175_038_235
 C   +0.00000000   +0.00000000   +0.00000000
 C   +0.00000000   +0.00000000   +1.50703451
 O   +1.20061763   +0.00000000   +2.10478017
 O   -0.97741023   +0.01783991   +2.19294317
 C   +2.40186563   -0.06929963   +1.37345726
 H   +3.19564652   +0.01541537   +2.10517480
 H   +2.49989966   -1.02113562   +0.85598237
 H   +2.49138572   +0.74663795   +0.66013023
 C   -1.33362119   -0.11235680   -0.67096228
 C   -2.48080479   +0.44851280   -0.27404816
 C   -3.74811109   +0.36776501   -1.04828377
 C   -4.33675830   +1.73795262   -1.34564580
 H   +0.50189969   +0.91459674   -0.32622869
 H   -1.30161972   -0.56633792   -1.65382133
 H   -2.52432794   +0.94615210   +0.68424393
 H   -3.58110823   -0.17972563   -1.97528320
 H   -4.47244564   -0.21032459   -0.47084567
 H   -5.28284625   +1.65001483   -1.87427050
 H   -4.51946937   +2.29187646   -0.42712820
 H   -3.66075862   +2.32864676   -1.95959159
 H   +0.64131691   -0.81211195   -0.33873332
 H   -1.61520678   -2.04040235   -0.03546526
