22
 * E =  +0.000 kcal/mol ; (1) 178_163_227_219
 C   +0.00000000   +0.00000000   +0.00000000
 O   +0.00000000   +0.00000000   +1.41737938
 C   +1.20201567   +0.00000000   +1.98694035
 C   +1.09807199   +0.05509403   +3.48304925
 C   +2.36178019   -0.33606384   +4.16222358
 C   +2.42516076   -1.19513578   +5.17678672
 C   +3.65513717   -1.55698804   +5.88586764
 C   +3.79814049   -3.00361931   +6.27890916
 O   +2.22538703   -0.01218961   +1.35987359
 H   +4.66922917   -3.15358940   +6.91154045
 H   +0.50550326   +0.88293060   -0.37834148
 H   +3.90860672   -3.63473049   +5.39837586
 H   +2.92298904   -3.34820141   +6.82608507
 H   +3.65314172   -0.93844159   +6.96239554
 H   +4.54284918   -1.15630896   +5.40233946
 H   +1.50973415   -1.65741346   +5.53198129
 H   +3.26742443   +0.11850528   +3.78294202
 H   +0.83604799   +1.08879496   +3.72477946
 H   +0.25645972   -0.55250186   +3.80549821
 H   +0.50525783   -0.88317802   -0.37770769
 H   -1.04091960   +0.00002020   -0.29578582
 H   +3.73086824   -0.48610531   +7.89751461
22
 * E =  +0.054 kcal/mol ; (2) 182_197_132_008
 C   +0.00000000   +0.00000000   +0.00000000
 O   +0.00000000   +0.00000000   +1.41731381
 C   +1.20208738   +0.00000000   +1.98687291
 C   +1.09904013   -0.05550401   +3.48294041
 C   +2.35837502   +0.35286063   +4.16117995
 C   +2.40272791   +1.21818128   +5.17167310
 C   +3.61396082   +1.62432298   +5.89404337
 C   +4.94212989   +1.16961753   +5.35871606
 O   +2.22523696   +0.01216844   +1.35921444
 H   +5.75143910   +1.51204282   +5.99748556
 H   +0.50817771   +0.88150861   -0.37768598
 H   +5.11279367   +1.56136532   +4.35679386
 H   +4.99727044   +0.08477541   +5.30490099
 H   +3.52893092   +1.13155280   +7.03131158
 H   +3.59916601   +2.68302585   +6.14396758
 H   +1.47444510   +1.65853862   +5.51762875
 H   +3.26669359   -0.08826356   +3.77555377
 H   +0.24921625   +0.54059622   +3.80518899
 H   +0.85130577   -1.09283906   +3.72435502
 H   +0.50264315   -0.88454806   -0.37843961
 H   -1.04090942   +0.00324913   -0.29582707
 H   +3.56485307   +0.71206292   +7.98472179
22
 * E =  +0.129 kcal/mol ; (3) 182_199_133_220
 C   +0.00000000   +0.00000000   +0.00000000
 O   +0.00000000   +0.00000000   +1.41752538
 C   +1.20206911   +0.00000000   +1.98651263
 C   +1.10029930   -0.05845586   +3.48285642
 C   +2.34651351   +0.39220388   +4.15862508
 C   +2.37130838   +1.24115862   +5.18334920
 C   +3.58966311   +1.70392680   +5.85264555
 C   +3.52385103   +1.82563354   +7.35223000
 O   +2.22537372   +0.01163708   +1.35941807
 H   +4.41781680   +2.30235223   +7.74608267
 H   +0.50552651   +0.88311547   -0.37738987
 H   +3.43207768   +0.84536202   +7.81778815
 H   +2.66493840   +2.41928646   +7.65862971
 H   +3.80661798   +2.86149622   +5.45560503
 H   +4.47695339   +1.18068806   +5.50470533
 H   +1.43486371   +1.64653770   +5.55295947
 H   +3.27167635   -0.01086335   +3.76826754
 H   +0.23163999   +0.50865165   +3.80635110
 H   +0.88980524   -1.10434506   +3.72257317
 H   +0.50539692   -0.88302792   -0.37825693
 H   -1.04092832   +0.00027084   -0.29570309
 H   +4.05603357   +3.84062620   +5.21249335
22
 * E =  +0.162 kcal/mol ; (4) 178_162_227_007
 C   +0.00000000   +0.00000000   +0.00000000
 O   +0.00000000   +0.00000000   +1.41740608
 C   +1.20216752   +0.00000000   +1.98657546
 C   +1.09992805   +0.05528866   +3.48291697
 C   +2.35576117   -0.36929301   +4.15822383
 C   +2.39052866   -1.22001746   +5.18133508
 C   +3.60306841   -1.67327966   +5.87284525
 C   +4.90947454   -1.02691686   +5.50903375
 O   +2.22524900   -0.01018400   +1.35887527
 H   +5.72948135   -1.48356772   +6.05620940
 H   +0.50092423   +0.88554661   -0.37838043
 H   +4.89819918   +0.03651824   +5.74581400
 H   +5.11890412   -1.12950048   +4.44690513
 H   +3.73887922   -2.87666742   +5.58848847
 H   +3.45278932   -1.74970461   +6.94768182
 H   +1.45698752   -1.64085114   +5.53741054
 H   +3.26811977   +0.06111927   +3.77015728
 H   +0.86527520   +1.09570340   +3.72385911
 H   +0.24355688   -0.53122511   +3.80510975
 H   +0.50990271   -0.88054639   -0.37751716
 H   -1.04091452   -0.00527667   -0.29576186
 H   +3.95563410   -3.86861684   +5.36517724
22
 * E =  +0.407 kcal/mol ; (5) 181_312_239_219
 C   +0.00000000   +0.00000000   +0.00000000
 O   +0.00000000   +0.00000000   +1.41704680
 C   +1.20239856   +0.00000000   +1.98728944
 C   +1.11026692   -0.01699217   +3.48631203
 C   +0.16382558   +0.99596080   +4.03615046
 C   +0.51841181   +1.95475111   +4.88923777
 C   -0.40202715   +2.93550644   +5.47015772
 C   +0.12407467   +4.33883166   +5.61796393
 O   +2.22492589   -0.00686967   +1.35944963
 H   -0.57133505   +4.96116886   +6.17523397
 H   +0.51325423   +0.87874574   -0.37727168
 H   +0.28147647   +4.79860513   +4.64344850
 H   +1.07621006   +4.34535457   +6.14441058
 H   -0.64369453   +2.56733262   +6.63062973
 H   -1.38953019   +2.89526446   +5.01640030
 H   +1.55441390   +2.01738076   +5.20531999
 H   -0.86342390   +0.92637958   +3.70280347
 H   +0.78029328   -1.02044323   +3.76466446
 H   +2.11391697   +0.12168207   +3.87360564
 H   +0.49780147   -0.88731277   -0.37825717
 H   -1.04075059   +0.00904970   -0.29636743
 H   -0.88930447   +2.35677267   +7.62124835
22
 * E =  +0.451 kcal/mol ; (6) 180_048_120_219
 C   +0.00000000   +0.00000000   +0.00000000
 O   +0.00000000   +0.00000000   +1.41718835
 C   +1.20219823   +0.00000000   +1.98732972
 C   +1.10948829   +0.01107734   +3.48680236
 C   +0.16397280   -1.00712010   +4.02890532
 C   +0.52392460   -1.98562287   +4.85701654
 C   -0.38351015   -3.00872515   +5.38271833
 C   -0.18113353   -3.40648148   +6.82105256
 O   +2.22497891   +0.01127144   +1.36014427
 H   -0.80217742   -4.25931520   +7.08265198
 H   +0.49751905   +0.88747971   -0.37825257
 H   -0.43633412   -2.58618941   +7.49036606
 H   +0.85587313   -3.67676633   +7.00903300
 H   -0.17317484   -4.04841553   +4.73780654
 H   -1.42335089   -2.80464082   +5.13857275
 H   +1.56306265   -2.05899800   +5.16027707
 H   -0.86735852   -0.92438881   +3.71164037
 H   +2.11330708   -0.13011167   +3.87275374
 H   +0.77939389   +1.01309983   +3.76915592
 H   +0.51337089   -0.87878738   -0.37692604
 H   -1.04076112   -0.00960723   -0.29625703
 H   -0.05582585   -4.97417839   +4.27484353
22
 * E =  +0.503 kcal/mol ; (7) 179_049_121_008
 C   +0.00000000   +0.00000000   +0.00000000
 O   +0.00000000   +0.00000000   +1.41698431
 C   +1.20265279   +0.00000000   +1.98720764
 C   +1.11053759   +0.01577807   +3.48607227
 C   +0.17212413   -1.00616408   +4.03458200
 C   +0.54502463   -1.96503410   +4.88008073
 C   -0.34154488   -2.97380866   +5.47151692
 C   -1.75276350   -3.06276287   +4.96354157
 O   +2.22475860   +0.00734111   +1.35859664
 H   -2.30928227   -3.82171918   +5.50621014
 H   +0.49963150   +0.88625633   -0.37834089
 H   -1.77075464   -3.32332978   +3.90591622
 H   -2.27730027   -2.11748186   +5.08281108
 H   -0.44247162   -2.69051544   +6.67698757
 H   +0.14342548   -3.94480408   +5.54396127
 H   +1.58396046   -2.00807907   +5.18559908
 H   -0.85331439   -0.94170875   +3.69843380
 H   +2.11541115   -0.11494589   +3.87298529
 H   +0.77213365   +1.01625691   +3.76486396
 H   +0.51152784   -0.87973150   -0.37739134
 H   -1.04076699   -0.00700489   -0.29644505
 H   -0.62924574   -2.49430185   +7.68317227
22
 * E =  +0.556 kcal/mol ; (8) 180_311_240_008
 C   +0.00000000   +0.00000000   +0.00000000
 O   +0.00000000   +0.00000000   +1.41709371
 C   +1.20273895   +0.00000000   +1.98693933
 C   +1.11085080   -0.01187289   +3.48620920
 C   +0.17242250   +1.01306122   +4.02930016
 C   +0.54567042   +1.97806777   +4.86758306
 C   -0.33159952   +3.01827171   +5.41692364
 C   -1.80749211   +2.91231566   +5.15625498
 O   +2.22485813   -0.01064608   +1.35858525
 H   -2.33430541   +3.76282923   +5.57974272
 H   +0.51089995   +0.88018282   -0.37710132
 H   -2.21863745   +2.00657001   +5.60072450
 H   -2.02032934   +2.88679145   +4.09000242
 H   +0.01972210   +4.08745784   +4.88957121
 H   -0.10057848   +3.23495803   +6.45760149
 H   +1.58613649   +2.02761143   +5.16692580
 H   -0.85671582   +0.93623379   +3.70737479
 H   +0.77358135   -1.01175328   +3.76776437
 H   +2.11593582   +0.12167586   +3.87162941
 H   +0.50013668   -0.88598059   -0.37830473
 H   -1.04077731   +0.00655463   -0.29638696
 H   +0.20800924   +5.01589219   +4.45737183
22
 * E =  +1.743 kcal/mol ; (9) 180_119_010_219
 C   +0.00000000   +0.00000000   +0.00000000
 O   +0.00000000   +0.00000000   +1.41720675
 C   +1.20150964   +0.00000000   +1.98682576
 C   +1.11067378   +0.00621215   +3.48180954
 C   +1.73124405   -1.18303994   +4.14743889
 C   +2.49387143   -2.11646619   +3.58312772
 C   +3.03420122   -3.27236173   +4.30459855
 C   +4.44262645   -3.67614301   +3.95662086
 O   +2.22301360   +0.00351282   +1.35418329
 H   +4.71061192   -4.61490868   +4.43474663
 H   +0.51308576   +0.87870959   -0.37779759
 H   +5.15396286   -2.91746793   +4.27944209
 H   +4.55822988   -3.80004722   +2.88209956
 H   +2.34145234   -4.25373491   +3.99286605
 H   +2.86012990   -3.21327604   +5.37684124
 H   +2.73778493   -2.04142874   +2.53105580
 H   +1.51901446   -1.25749365   +5.20723079
 H   +1.60705000   +0.91388618   +3.82937514
 H   +0.06545763   +0.08554119   +3.76891735
 H   +0.49836980   -0.88732953   -0.37724151
 H   -1.04085331   +0.00769215   -0.29555351
 H   +1.83662317   -5.14036535   +3.77868004
22
 * E =  +1.869 kcal/mol ; (10) 179_248_346_008
 C   +0.00000000   +0.00000000   +0.00000000
 O   +0.00000000   +0.00000000   +1.41710633
 C   +1.20152427   +0.00000000   +1.98650792
 C   +1.11382747   +0.01842041   +3.48121348
 C   +1.58722333   +1.29866172   +4.10156418
 C   +2.28386594   +2.26089053   +3.50102681
 C   +2.71124432   +3.51225162   +4.13870018
 C   +2.50551732   +3.67016738   +5.61859471
 O   +2.22329859   -0.01017810   +1.35404145
 H   +2.83291397   +4.65203601   +5.94881790
 H   +0.49759411   +0.88776490   -0.37734654
 H   +3.07182164   +2.92312511   +6.17389030
 H   +1.45696473   +3.56306887   +5.88764681
 H   +2.04171920   +4.41934493   +3.61660409
 H   +3.70875795   +3.80493857   +3.81858381
 H   +2.56245031   +2.13780074   +2.46296333
 H   +1.33175611   +1.40208498   +5.14780119
 H   +0.08525916   -0.17252288   +3.77523332
 H   +1.71841825   -0.80975898   +3.85270261
 H   +0.51368164   -0.87829895   -0.37791521
 H   -1.04084817   -0.00838561   -0.29562504
 H   +1.48713417   +5.23365840   +3.27830357
22
 * E =  +8.329 kcal/mol ; (11) 357_174_228_220
 C   +0.00000000   +0.00000000   +0.00000000
 O   +0.00000000   +0.00000000   +1.40885457
 C   +1.14128743   +0.00000000   +2.10796012
 C   +2.43334966   -0.07008130   +1.33212273
 C   +3.62172949   +0.08346367   +2.21279386
 C   +4.63193065   +0.91066305   +1.95666824
 C   +5.83063035   +1.04373673   +2.78831950
 C   +6.36181110   +2.44035065   +2.97445709
 O   +1.09169932   +0.02615030   +3.30168346
 H   +7.31897443   +2.42990449   +3.48934881
 H   +0.40141738   +0.92936968   -0.39796619
 H   +5.66975592   +3.04177262   +3.56183556
 H   +6.50196496   +2.93648080   +2.01616823
 H   +6.74563341   +0.43375188   +2.21040176
 H   +5.74896815   +0.49015580   +3.72050286
 H   +4.59329420   +1.52913188   +1.06544734
 H   +3.63159774   -0.52108842   +3.10927621
 H   +2.45365537   -1.04155095   +0.82955482
 H   +2.43964688   +0.67697397   +0.54018131
 H   +0.55514996   -0.84264475   -0.40514210
 H   -1.03834398   -0.08836773   -0.29400929
 H   +7.57879963   -0.02651450   +1.79050945
22
 * E =  +8.363 kcal/mol ; (12) 003_187_132_008
 C   +0.00000000   +0.00000000   +0.00000000
 O   +0.00000000   +0.00000000   +1.40889587
 C   +1.14143947   +0.00000000   +2.10785059
 C   +2.43364881   +0.07148533   +1.33249613
 C   +3.62142981   -0.09500146   +2.21226961
 C   +4.62364241   -0.92783911   +1.94240068
 C   +5.82943900   -1.10297528   +2.76022907
 C   +5.88196985   -0.41783657   +4.09620304
 O   +1.09136885   -0.02636353   +3.30166732
 H   +6.83279222   -0.60553844   +4.58694473
 H   +0.55809041   +0.84068706   -0.40515038
 H   +5.08717464   -0.77686825   +4.74862620
 H   +5.76729180   +0.65887690   +3.99427829
 H   +6.77180237   -0.62666216   +2.10440417
 H   +6.13745477   -2.14525830   +2.80681284
 H   +4.57248896   -1.52695050   +1.04007820
 H   +3.62553809   +0.49615899   +3.11641899
 H   +2.43698589   -0.66760142   +0.53313273
 H   +2.45664012   +1.04795666   +0.83967237
 H   +0.39828316   -0.93078418   -0.39779350
 H   -1.03805254   +0.09186674   -0.29401118
 H   +7.60471990   -0.20209343   +1.64628638
22
 * E =  +8.739 kcal/mol ; (13) 003_085_231_007
 C   +0.00000000   +0.00000000   +0.00000000
 O   +0.00000000   +0.00000000   +1.41096814
 C   +1.13781556   +0.00000000   +2.10936353
 C   +2.45071881   +0.06340439   +1.36256121
 C   +2.81337886   +1.48265698   +1.05919953
 C   +3.14478463   +1.92644693   -0.15210955
 C   +3.50111930   +3.30950674   -0.48904426
 C   +3.66577922   +4.29260674   +0.63493302
 O   +1.08850368   -0.00971057   +3.30482970
 H   +3.88696934   +5.28337291   +0.24856950
 H   +0.59104985   +0.81939030   -0.39875728
 H   +4.48220727   +3.99868840   +1.29351840
 H   +2.76205413   +4.36428707   +1.23562598
 H   +2.56739297   +3.74766101   -1.18071118
 H   +4.31192438   +3.35271017   -1.21288096
 H   +3.14273976   +1.22287741   -0.97771029
 H   +2.81697594   +2.15635095   +1.90582067
 H   +3.18288413   -0.37081176   +2.03868199
 H   +2.43459871   -0.52743783   +0.45025445
 H   +0.36155424   -0.94807904   -0.39242421
 H   -1.03471223   +0.12853571   -0.29245398
 H   +1.79826378   +4.20158138   -1.71979747
22
 * E =  +8.741 kcal/mol ; (14) 357_275_129_220
 C   +0.00000000   +0.00000000   +0.00000000
 O   +0.00000000   +0.00000000   +1.41094110
 C   +1.13775071   +0.00000000   +2.10913281
 C   +2.45076659   -0.06019111   +1.36180776
 C   +2.81730798   -1.47778005   +1.05774642
 C   +3.15193710   -1.92815505   -0.15005867
 C   +3.50132452   -3.31734248   -0.45772390
 C   +4.63313592   -3.52226953   -1.42971141
 O   +1.08922891   +0.00829797   +3.30453136
 H   +4.73045141   -4.57016632   -1.70075684
 H   +0.36258983   +0.94759838   -0.39261763
 H   +5.57849584   -3.19716012   -0.99809340
 H   +4.47259228   -2.95315232   -2.34305164
 H   +2.51296981   -3.82035946   -1.01468304
 H   +3.58840219   -3.92986782   +0.43628160
 H   +3.15770590   -1.23351236   -0.98466290
 H   +2.81626424   -2.15737526   +1.90110297
 H   +2.43301094   +0.53075214   +0.44963536
 H   +3.18201879   +0.37527768   +2.03816311
 H   +0.58984422   -0.82035272   -0.39864248
 H   -1.03484590   -0.12749072   -0.29239275
 H   +1.74109573   -4.31290080   -1.51321316
22
 * E =  +8.870 kcal/mol ; (15) 003_086_232_218
 C   +0.00000000   +0.00000000   +0.00000000
 O   +0.00000000   +0.00000000   +1.41057149
 C   +1.13885375   +0.00000000   +2.10817991
 C   +2.45040013   +0.07036455   +1.36009600
 C   +2.82156748   +1.49199549   +1.08169851
 C   +3.15013278   +1.96586834   -0.11897983
 C   +3.57459996   +3.34217037   -0.38633713
 C   +3.07583466   +3.96010114   -1.66588067
 O   +1.09036066   -0.01391228   +3.30339804
 H   +3.55095226   +4.92058266   -1.84706321
 H   +0.59179280   +0.81924681   -0.39839683
 H   +1.99943781   +4.12100218   -1.62646689
 H   +3.28508181   +3.31716692   -2.51842678
 H   +4.81048856   +3.32187006   -0.50851767
 H   +3.44890117   +3.98894938   +0.47849697
 H   +3.13992589   +1.29043436   -0.96918493
 H   +2.83002686   +2.15392376   +1.93894472
 H   +3.18301257   -0.37707093   +2.02746576
 H   +2.43299177   -0.50486009   +0.43811442
 H   +0.36167543   -0.94782061   -0.39291256
 H   -1.03468910   +0.12859214   -0.29273687
 H   +5.83713373   +3.40443856   -0.65316043
22
 * E =  +8.999 kcal/mol ; (16) 352_282_356_009
 C   +0.00000000   +0.00000000   +0.00000000
 O   +0.00000000   +0.00000000   +1.41156100
 C   +1.14055281   +0.00000000   +2.10954598
 C   +2.43499508   -0.17950462   +1.36079074
 C   +2.69759825   -1.60135205   +0.96825973
 C   +1.93344524   -2.64411065   +1.28833515
 C   +2.18977407   -4.03570764   +0.89858685
 C   +3.50216941   -4.36372308   +0.24507176
 O   +1.09278738   +0.10339322   +3.30020928
 H   +3.54667184   -5.41674003   -0.01782476
 H   +0.36291722   +0.94899157   -0.38877127
 H   +4.33499811   -4.14881733   +0.91364274
 H   +3.64830682   -3.78907877   -0.66695820
 H   +1.32168969   -4.32685401   +0.05920281
 H   +1.92837584   -4.72940853   +1.69414077
 H   +1.03427732   -2.47791308   +1.87086447
 H   +3.60583252   -1.75634505   +0.40119601
 H   +2.46094422   +0.45471859   +0.47428237
 H   +3.22148845   +0.17093166   +2.02456493
 H   +0.58971246   -0.82048430   -0.39977616
 H   -1.03461164   -0.12673698   -0.29334555
 H   +0.66961562   -4.62484993   -0.69739476
22
 * E =  +9.247 kcal/mol ; (17) 352_282_354_218
 C   +0.00000000   +0.00000000   +0.00000000
 O   +0.00000000   +0.00000000   +1.41104846
 C   +1.14133959   +0.00000000   +2.10855347
 C   +2.43464366   -0.17385677   +1.35664972
 C   +2.70034824   -1.59621465   +0.96920384
 C   +1.97290540   -2.65082555   +1.33350725
 C   +2.29635015   -4.03752176   +0.98864508
 C   +1.13225352   -4.93606324   +0.66448938
 O   +1.09392804   +0.09818601   +3.29940428
 H   +1.45307430   -5.96947021   +0.56238698
 H   +0.35783125   +0.95066104   -0.38949121
 H   +0.65799513   -4.63836712   -0.26971975
 H   +0.37777340   -4.89450410   +1.44698289
 H   +2.81636297   -4.54885180   +1.99484248
 H   +3.10569104   -4.10820826   +0.26553027
 H   +1.09532645   -2.50306337   +1.95479761
 H   +3.58174362   -1.75073283   +0.35894376
 H   +2.45593617   +0.45921195   +0.46971246
 H   +3.22198639   +0.17942504   +2.01842661
 H   +0.59470470   -0.81734337   -0.39930184
 H   -1.03399795   -0.13183784   -0.29359834
 H   +3.24351187   -5.07728207   +2.78046153
22
 * E =  +9.323 kcal/mol ; (18) 007_078_005_009
 C   +0.00000000   +0.00000000   +0.00000000
 O   +0.00000000   +0.00000000   +1.41098735
 C   +1.14195121   +0.00000000   +2.10787465
 C   +2.43501264   +0.17173873   +1.35521433
 C   +2.70565677   +1.59321592   +0.96577308
 C   +1.96861859   +2.64464191   +1.32047506
 C   +2.26450679   +4.04103387   +0.98046207
 C   +3.37655605   +4.31877713   +0.00913698
 O   +1.09488471   -0.09794300   +3.29879434
 H   +3.51067959   +5.38850649   -0.12391777
 H   +0.59314995   +0.81844917   -0.39911891
 H   +3.16339731   +3.88368448   -0.96690829
 H   +4.32115901   +3.90839881   +0.35900440
 H   +2.61094373   +4.59260289   +2.04090040
 H   +1.36005356   +4.60371031   +0.76100961
 H   +1.08981038   +2.48700033   +1.93555461
 H   +3.58939629   +1.73869129   +0.35892738
 H   +3.22160351   -0.18368089   +2.01666271
 H   +2.45395828   -0.46194338   +0.46859705
 H   +0.35977219   -0.94989834   -0.38958047
 H   -1.03425332   +0.12978167   -0.29365026
 H   +2.97050814   +5.12146713   +2.85789290
22
 * E =  +9.990 kcal/mol ; (19) 351_277_246_219
 C   +0.00000000   +0.00000000   +0.00000000
 O   +0.00000000   +0.00000000   +1.40918998
 C   +1.13820847   +0.00000000   +2.11446708
 C   +2.44269048   -0.21498214   +1.38084011
 C   +2.70487257   -1.67031643   +1.15824202
 C   +3.70469999   -2.33711992   +1.73090000
 C   +3.99501821   -3.75581415   +1.51144832
 C   +4.44003697   -4.53837568   +2.71866693
 O   +1.08530591   +0.13199282   +3.30072227
 H   +4.75657631   -5.54003397   +2.44001450
 H   +0.40532481   +0.92931452   -0.39409183
 H   +3.63061310   -4.62839663   +3.44121241
 H   +5.27429940   -4.04831191   +3.21591484
 H   +4.95445113   -3.81275318   +0.72634931
 H   +3.21466204   -4.25585151   +0.94239812
 H   +4.37204821   -1.80317889   +2.39835432
 H   +2.02919487   -2.20614207   +0.50227440
 H   +2.44871067   +0.32273672   +0.43355534
 H   +3.21610251   +0.20620985   +2.01364731
 H   +0.54841069   -0.84315988   -0.41130755
 H   -1.03935597   -0.08148341   -0.29308900
 H   +5.76550425   -3.96434151   +0.08985363
22
 * E = +10.074 kcal/mol ; (20) 009_083_112_008
 C   +0.00000000   +0.00000000   +0.00000000
 O   +0.00000000   +0.00000000   +1.40902901
 C   +1.13864791   +0.00000000   +2.11409041
 C   +2.44281789   +0.21686400   +1.38066844
 C   +2.70233444   +1.67352584   +1.15982569
 C   +3.69175467   +2.33785448   +1.75372378
 C   +4.00046933   +3.75930872   +1.56551271
 C   +3.03200740   +4.60056299   +0.78342288
 O   +1.08553955   -0.13302142   +3.30024835
 H   +3.39571481   +5.62007354   +0.69262726
 H   +0.54942241   +0.84259572   -0.41118211
 H   +2.05980220   +4.63303111   +1.27384437
 H   +2.88822833   +4.21034650   -0.22181482
 H   +5.06693911   +3.80460726   +0.92918301
 H   +4.31240891   +4.22839700   +2.49574505
 H   +4.34467949   +1.79383795   +2.42538534
 H   +2.02925988   +2.20290800   +0.49804853
 H   +3.21633814   -0.20417282   +2.01346617
 H   +2.44961713   -0.32019944   +0.43307504
 H   +0.40443929   -0.92967844   -0.39417857
 H   -1.03924776   +0.08259913   -0.29325342
 H   +5.92083471   +3.93525965   +0.34802191
22
 * E = +10.282 kcal/mol ; (21) 351_277_248_008
 C   +0.00000000   +0.00000000   +0.00000000
 O   +0.00000000   +0.00000000   +1.40882434
 C   +1.13880106   +0.00000000   +2.11387213
 C   +2.44336986   -0.21378391   +1.37950214
 C   +2.70477779   -1.66904315   +1.15100574
 C   +3.69154083   -2.33674151   +1.74599374
 C   +3.97700813   -3.76573166   +1.58185819
 C   +3.21134211   -4.52986410   +0.53915068
 O   +1.08606283   +0.13333535   +3.29985304
 H   +3.49290713   -5.57896378   +0.54865614
 H   +0.40620058   +0.92888597   -0.39435226
 H   +3.41023946   -4.13833243   -0.45808329
 H   +2.13926349   -4.47394971   +0.71431280
 H   +3.68728200   -4.30589201   +2.66459710
 H   +5.04614265   -3.96303512   +1.55157525
 H   +4.33544204   -1.79842734   +2.43092685
 H   +2.04799794   -2.19029878   +0.46690580
 H   +2.44983354   +0.32916051   +0.43537557
 H   +3.21558321   +0.20426912   +2.01589302
 H   +0.54768494   -0.84365411   -0.41128008
 H   -1.03939991   -0.08067917   -0.29329278
 H   +3.42198377   -4.85356441   +3.50602315
22
 * E = +10.638 kcal/mol ; (22) 357_176_352_219
 C   +0.00000000   +0.00000000   +0.00000000
 O   +0.00000000   +0.00000000   +1.40806840
 C   +1.13326034   +0.00000000   +2.12613440
 C   +2.41739392   -0.05977589   +1.34535569
 C   +3.71235451   +0.03825939   +2.08144011
 C   +3.93880102   +0.32715257   +3.36165555
 C   +5.28739830   +0.44508868   +3.92476787
 C   +5.48267600   -0.11563702   +5.30865951
 O   +1.04725097   +0.02601634   +3.31769889
 H   +6.46523006   +0.13710131   +5.69919044
 H   +0.42224803   +0.91917359   -0.40033016
 H   +5.39055159   -1.20072596   +5.30310095
 H   +4.73535933   +0.27483239   +5.99569005
 H   +5.52581192   +1.65702616   +4.04235390
 H   +6.06268264   +0.13635736   +3.22633348
 H   +3.10755172   +0.49636771   +4.02905789
 H   +4.57175632   -0.13471125   +1.44312711
 H   +2.40133893   -0.99409742   +0.77860977
 H   +2.38700743   +0.71870326   +0.57996459
 H   +0.53379144   -0.85597330   -0.40625397
 H   -1.04061428   -0.06409866   -0.29265352
 H   +5.81888819   +2.64551871   +4.19936743
22
 * E = +10.886 kcal/mol ; (23) 002_187_009_008
 C   +0.00000000   +0.00000000   +0.00000000
 O   +0.00000000   +0.00000000   +1.40799156
 C   +1.13173715   +0.00000000   +2.12842272
 C   +2.41883388   +0.05010368   +1.35165861
 C   +3.71026888   -0.09908908   +2.08733995
 C   +3.91368849   -0.43356034   +3.36045096
 C   +5.24065172   -0.60086974   +3.96729506
 C   +6.45684673   -0.21572348   +3.17358566
 O   +1.04158661   -0.01491357   +3.31992848
 H   +7.36286831   -0.42118308   +3.73686538
 H   +0.55202851   +0.84416979   -0.40657418
 H   +6.44591984   +0.84671675   +2.93175655
 H   +6.51581038   -0.77045593   +2.23958667
 H   +5.36874437   -1.81666031   +4.19071799
 H   +5.26477754   -0.21898393   +4.98541667
 H   +3.06503450   -0.60446220   +4.00375552
 H   +4.57063703   +0.08426476   +1.45601258
 H   +2.37337902   -0.70435012   +0.56373475
 H   +2.42406617   +1.00145735   +0.81327823
 H   +0.40254958   -0.92823776   -0.39984577
 H   -1.03905470   +0.08607969   -0.29266298
 H   +5.59131210   -2.82025011   +4.35642474
