22
 * E =  +0.000 kcal/mol ; (1) 182_196_132_116_179
 C   +0.00000000   +0.00000000   +0.00000000
 O   +0.00000000   +0.00000000   +1.41727084
 C   +1.20242106   +0.00000000   +1.98673531
 C   +1.09910622   -0.05363197   +3.48275169
 C   +2.36807741   +0.32849970   +4.15999194
 C   +2.44231322   +1.19545146   +5.15989822
 C   +3.70734929   +1.59097145   +5.84989551
 C   +4.00539543   +3.04791485   +5.64198569
 O   +2.22523797   +0.01159983   +1.35866388
 H   +5.16129313   +3.30358145   +6.33665721
 H   +0.51007875   +0.88040851   -0.37771493
 H   +3.30991100   +3.74299828   +6.10017565
 H   +4.27019825   +3.32840542   +4.62897368
 H   +4.52998976   +0.98456923   +5.47485419
 H   +3.62098924   +1.38790239   +6.91826177
 H   +1.53620693   +1.68087927   +5.50704016
 H   +3.26702922   -0.14688600   +3.78973020
 H   +0.26388764   +0.56327592   +3.80431352
 H   +0.82693431   -1.08401142   +3.72556545
 H   +0.50096119   -0.88553801   -0.37839016
 H   -1.04087764   +0.00527423   -0.29594444
 H   +5.92044353   +3.42997141   +6.81118140
22
 * E =  +0.036 kcal/mol ; (2) 182_198_132_244_182
 C   +0.00000000   +0.00000000   +0.00000000
 O   +0.00000000   +0.00000000   +1.41729613
 C   +1.20242291   +0.00000000   +1.98664785
 C   +1.09980749   -0.05760954   +3.48246448
 C   +2.35550158   +0.36413031   +4.16133460
 C   +2.40042589   +1.23210178   +5.16218301
 C   +3.64754630   +1.64393790   +5.87480158
 C   +3.61792246   +1.21674296   +7.31408935
 O   +2.22525343   +0.01273775   +1.35864724
 H   +4.78415163   +1.67511173   +7.87347086
 H   +0.51031309   +0.88026544   -0.37767912
 H   +3.67794315   +0.14777479   +7.48450236
 H   +2.86829267   +1.69644201   +7.93438354
 H   +3.75662322   +2.72796816   +5.82155265
 H   +4.51158617   +1.21132928   +5.37352500
 H   +1.47688636   +1.67600578   +5.51879149
 H   +3.27026455   -0.07627272   +3.78657690
 H   +0.24458247   +0.53044810   +3.80494127
 H   +0.86297958   -1.09735706   +3.72322017
 H   +0.50065345   -0.88569828   -0.37843197
 H   -1.04088572   +0.00556626   -0.29589762
 H   +5.56087784   +1.99905660   +8.20451201
22
 * E =  +0.081 kcal/mol ; (3) 182_196_132_121_061
 C   +0.00000000   +0.00000000   +0.00000000
 O   +0.00000000   +0.00000000   +1.41713907
 C   +1.20241702   +0.00000000   +1.98670761
 C   +1.09920045   -0.05119740   +3.48262314
 C   +2.37068174   +0.32437042   +4.15889725
 C   +2.45119424   +1.19301087   +5.15579371
 C   +3.71576463   +1.57364677   +5.84979256
 C   +3.99965082   +3.04440860   +5.76277988
 O   +2.22513834   +0.01023755   +1.35822642
 H   +2.94623493   +3.66275095   +6.39078108
 H   +0.50698248   +0.88215234   -0.37785873
 H   +3.95783094   +3.47217579   +4.76757050
 H   +4.84253086   +3.39951178   +6.34464108
 H   +4.54793118   +1.00962331   +5.42184517
 H   +3.65880439   +1.28459341   +6.90098479
 H   +1.55018757   +1.68646183   +5.50489067
 H   +3.26642156   -0.15703740   +3.78823655
 H   +0.26823993   +0.57162590   +3.80379314
 H   +0.82044859   -1.07936129   +3.72728741
 H   +0.50375006   -0.88386410   -0.37861346
 H   -1.04091282   +0.00204099   -0.29591425
 H   +2.23785835   +4.02402291   +6.82763981
22
 * E =  +0.120 kcal/mol ; (4) 182_197_132_239_299
 C   +0.00000000   +0.00000000   +0.00000000
 O   +0.00000000   +0.00000000   +1.41716428
 C   +1.20234472   +0.00000000   +1.98673908
 C   +1.09982781   -0.05549558   +3.48253623
 C   +2.36221861   +0.34941662   +4.15936605
 C   +2.42150461   +1.21351023   +5.16171811
 C   +3.67572610   +1.61645057   +5.86177218
 C   +3.64293448   +1.30938449   +7.33011090
 O   +2.22515648   +0.01172015   +1.35843718
 H   +2.59836539   +2.04058337   +7.83938821
 H   +0.50830046   +0.88138798   -0.37783301
 H   +4.47790343   +1.68389968   +7.91124228
 H   +3.36234213   +0.29552653   +7.59248527
 H   +3.84071724   +2.68702517   +5.72689066
 H   +4.52769863   +1.11523655   +5.39639511
 H   +1.50669581   +1.67023512   +5.52458086
 H   +3.26983832   -0.10279072   +3.78085824
 H   +0.25346959   +0.54506381   +3.80537972
 H   +0.84823478   -1.09140298   +3.72430027
 H   +0.50245978   -0.88461977   -0.37857540
 H   -1.04091178   +0.00347903   -0.29589326
 H   +1.90860336   +2.55274693   +8.13182209
22
 * E =  +0.297 kcal/mol ; (5) 178_167_230_355_065
 C   +0.00000000   +0.00000000   +0.00000000
 O   +0.00000000   +0.00000000   +1.41693003
 C   +1.20313338   +0.00000000   +1.98639512
 C   +1.09901892   +0.04951218   +3.48232307
 C   +2.38580483   -0.26860922   +4.15875726
 C   +2.50015184   -1.15600186   +5.13592790
 C   +3.75601452   -1.50692122   +5.86414878
 C   +5.00311525   -0.86188506   +5.35309374
 O   +2.22508534   -0.01093265   +1.35691364
 H   +4.85975354   +0.49069088   +5.56334928
 H   +0.50438124   +0.88350203   -0.37866486
 H   +5.16400371   -0.91891049   +4.28223634
 H   +5.89902983   -1.07212347   +5.92480380
 H   +3.87622025   -2.59515020   +5.83480368
 H   +3.62795770   -1.27067283   +6.92311497
 H   +1.61292258   -1.68889662   +5.45983339
 H   +3.24985181   +0.27680766   +3.80696826
 H   +0.77377471   +1.06377659   +3.72684165
 H   +0.29581076   -0.60992881   +3.80217142
 H   +0.50648371   -0.88235722   -0.37819205
 H   -1.04089530   -0.00125410   -0.29613284
 H   +4.74309354   +1.37126577   +5.73318736
22
 * E =  +0.385 kcal/mol ; (6) 180_310_240_244_181
 C   +0.00000000   +0.00000000   +0.00000000
 O   +0.00000000   +0.00000000   +1.41698076
 C   +1.20266923   +0.00000000   +1.98738312
 C   +1.10917734   -0.01135925   +3.48591874
 C   +0.19292536   +1.03542824   +4.02809355
 C   +0.57716544   +1.99239835   +4.86169966
 C   -0.32040653   +3.05371203   +5.40995642
 C   +0.10950474   +4.41775702   +4.95226545
 O   +2.22480148   -0.00840660   +1.35870530
 H   -0.76201409   +5.30592580   +5.53156582
 H   +0.51381735   +0.87835049   -0.37748930
 H   -0.01859764   +4.61605135   +3.89426655
 H   +1.06648321   +4.76289359   +5.32847781
 H   -0.30600911   +3.01700758   +6.50009083
 H   -1.34541974   +2.86037500   +5.09781645
 H   +1.61661556   +2.03780058   +5.16811068
 H   -0.83905142   +0.98537327   +3.70516233
 H   +0.74863422   -1.00232579   +3.76896147
 H   +2.11606509   +0.10120727   +3.87320833
 H   +0.49716982   -0.88762779   -0.37839988
 H   -1.04074470   +0.00971760   -0.29644305
 H   -1.35463686   +5.85617611   +5.93573586
22
 * E =  +0.392 kcal/mol ; (7) 178_163_229_000_181
 C   +0.00000000   +0.00000000   +0.00000000
 O   +0.00000000   +0.00000000   +1.41714929
 C   +1.20255766   +0.00000000   +1.98671097
 C   +1.09983805   +0.05519362   +3.48256636
 C   +2.36605053   -0.33736529   +4.15961921
 C   +2.42556046   -1.21145103   +5.15366395
 C   +3.66411104   -1.63715648   +5.87964316
 C   +4.92895913   -0.99773192   +5.40343154
 O   +2.22514244   -0.01222383   +1.35808958
 H   +5.92941957   -1.53309095   +6.18589679
 H   +0.50275610   +0.88445793   -0.37855887
 H   +5.03243691   +0.06269481   +5.60443201
 H   +5.25326467   -1.26966950   +4.40534804
 H   +3.75025237   -2.72260503   +5.80053924
 H   +3.52729067   -1.43397785   +6.94358531
 H   +1.50755036   -1.67984560   +5.49254648
 H   +3.26612840   +0.13303907   +3.78829403
 H   +0.83635035   +1.08819232   +3.72408070
 H   +0.25902445   -0.55414364   +3.80413644
 H   +0.50812481   -0.88148318   -0.37786873
 H   -1.04089421   -0.00314899   -0.29597166
 H   +6.55107254   -1.90686549   +6.71858457
22
 * E =  +0.392 kcal/mol ; (8) 180_310_240_116_179
 C   +0.00000000   +0.00000000   +0.00000000
 O   +0.00000000   +0.00000000   +1.41696691
 C   +1.20247444   +0.00000000   +1.98750161
 C   +1.10864621   -0.01074125   +3.48598383
 C   +0.18902790   +1.03311951   +4.02798900
 C   +0.57214711   +1.99697239   +4.85419152
 C   -0.33468118   +3.03856359   +5.42446831
 C   -0.43452095   +2.91481270   +6.91769627
 O   +2.22487159   -0.00965273   +1.35928018
 H   -1.26141241   +3.92948396   +7.32995135
 H   +0.51077724   +0.88018653   -0.37733910
 H   +0.47399172   +3.12609205   +7.47133763
 H   -0.94699926   +2.03048262   +7.27906051
 H   -1.32204383   +2.94709566   +4.97485940
 H   +0.04291186   +4.02938666   +5.16842652
 H   +1.60990988   +2.04135148   +5.16637026
 H   -0.84260838   +0.98019662   +3.70442863
 H   +0.75108196   -1.00290249   +3.76906223
 H   +2.11512706   +0.10467154   +3.87349673
 H   +0.50028035   -0.88589010   -0.37836399
 H   -1.04076329   +0.00636275   -0.29644347
 H   -1.80667644   +4.61342254   +7.55907082
22
 * E =  +0.444 kcal/mol ; (9) 178_164_229_121_293
 C   +0.00000000   +0.00000000   +0.00000000
 O   +0.00000000   +0.00000000   +1.41709978
 C   +1.20285085   +0.00000000   +1.98632854
 C   +1.09992581   +0.05350228   +3.48214709
 C   +2.36867885   -0.32774199   +4.16004946
 C   +2.44510101   -1.20275960   +5.15126966
 C   +3.70352620   -1.58028937   +5.85642866
 C   +3.65173775   -1.30920316   +7.33129466
 O   +2.22509921   -0.01166813   +1.35732961
 H   +3.58845991   +0.05912803   +7.46107929
 H   +0.49969618   +0.88620078   -0.37856968
 H   +4.55126182   -1.54954337   +7.88651697
 H   +2.74790699   -1.62704825   +7.84017776
 H   +4.54832460   -1.05792389   +5.40910404
 H   +3.89149648   -2.64838418   +5.70421386
 H   +1.53832996   -1.68777901   +5.49868182
 H   +3.26600592   +0.15599636   +3.79717021
 H   +0.82879672   +1.08387543   +3.72596510
 H   +0.26462045   -0.56327058   +3.80371107
 H   +0.51121642   -0.87969183   -0.37789680
 H   -1.04088156   -0.00658352   -0.29601238
 H   +3.56356321   +0.96106097   +7.50451054
22
 * E =  +0.567 kcal/mol ; (10) 181_311_240_121_061
 C   +0.00000000   +0.00000000   +0.00000000
 O   +0.00000000   +0.00000000   +1.41683709
 C   +1.20308600   +0.00000000   +1.98690399
 C   +1.11068530   -0.01515395   +3.48535131
 C   +0.17657238   +1.01344675   +4.03174637
 C   +0.54246277   +1.97229645   +4.87018324
 C   -0.37673567   +3.00232397   +5.43548708
 C   -0.43205477   +2.96734366   +6.93466649
 O   +2.22468296   -0.00776550   +1.35741001
 H   +0.84563240   +3.23441888   +7.36030137
 H   +0.51216752   +0.87932257   -0.37748631
 H   -0.62219788   +1.99538440   +7.37569146
 H   -0.99305443   +3.76602431   +7.40629245
 H   -1.37883883   +2.86069417   +5.02351548
 H   -0.05238719   +3.99437519   +5.11577400
 H   +1.57683337   +2.02826837   +5.19175904
 H   -0.85255368   +0.95052762   +3.70155126
 H   +0.76760646   -1.01331171   +3.76529988
 H   +2.11562842   +0.11295739   +3.87279520
 H   +0.49899492   -0.88659839   -0.37845128
 H   -1.04075246   +0.00779982   -0.29655336
 H   +1.70056884   +3.42890207   +7.59358070
22
 * E =  +0.569 kcal/mol ; (11) 181_312_239_238_298
 C   +0.00000000   +0.00000000   +0.00000000
 O   +0.00000000   +0.00000000   +1.41684245
 C   +1.20315096   +0.00000000   +1.98672510
 C   +1.11279215   -0.02042705   +3.48521712
 C   +0.15428440   +0.98099417   +4.03919234
 C   +0.49510487   +1.93582553   +4.89264821
 C   -0.44809550   +2.94145677   +5.46243229
 C   -0.03641917   +4.35290580   +5.16242835
 O   +2.22455414   -0.00581100   +1.35683463
 H   +1.18786728   +4.51637745   +5.76144622
 H   +0.51236505   +0.87916231   -0.37758270
 H   -0.62208227   +5.12865881   +5.64223746
 H   +0.18560106   +4.56749842   +4.12326257
 H   -0.50928211   +2.81286150   +6.54481825
 H   -1.45331457   +2.75686457   +5.07583203
 H   +1.52911781   +2.01852724   +5.20970211
 H   -0.87267585   +0.89737177   +3.70699869
 H   +0.79658326   -1.02846956   +3.76198606
 H   +2.11513662   +0.13035913   +3.87139290
 H   +0.49879740   -0.88670162   -0.37847036
 H   -1.04076656   +0.00796907   -0.29652033
 H   +1.98666304   +4.57981942   +6.18695365
22
 * E =  +0.655 kcal/mol ; (12) 178_158_227_237_066
 C   +0.00000000   +0.00000000   +0.00000000
 O   +0.00000000   +0.00000000   +1.41733134
 C   +1.20293647   +0.00000000   +1.98549838
 C   +1.10509910   +0.05858287   +3.48159158
 C   +2.32875523   -0.45797619   +4.15452556
 C   +2.31196912   -1.30715855   +5.17085947
 C   +3.52505280   -1.82631774   +5.86562558
 C   +3.60366258   -3.32468832   +5.86423338
 O   +2.22503082   -0.01081381   +1.35631147
 H   +3.77568776   -3.69948711   +4.55121772
 H   +0.50053142   +0.88580226   -0.37839296
 H   +2.69012183   -3.84604777   +6.12996599
 H   +4.48065780   -3.75007576   +6.33864530
 H   +3.51878057   -1.47870253   +6.90439668
 H   +4.42006151   -1.40359316   +5.41060459
 H   +1.35804284   -1.67168941   +5.53881087
 H   +3.27191879   -0.10207342   +3.76096783
 H   +0.95083327   +1.11322209   +3.72497926
 H   +0.20956297   -0.46457267   +3.80529664
 H   +0.51077354   -0.88013997   -0.37730996
 H   -1.04089051   -0.00596664   -0.29593186
 H   +3.90183994   -3.91053047   +3.68240735
22
 * E =  +0.689 kcal/mol ; (13) 181_311_240_355_064
 C   +0.00000000   +0.00000000   +0.00000000
 O   +0.00000000   +0.00000000   +1.41664900
 C   +1.20280469   +0.00000000   +1.98696337
 C   +1.11136222   -0.01548481   +3.48530766
 C   +0.17737938   +1.01296560   +4.03300616
 C   +0.55852978   +1.97611669   +4.86012178
 C   -0.31993424   +3.02719790   +5.45494794
 C   -1.73326740   +3.04522377   +4.97061137
 O   +2.22448712   -0.00647973   +1.35703700
 H   -2.30429296   +1.85834472   +5.37067909
 H   +0.51285585   +0.87888133   -0.37771113
 H   -1.86808506   +3.02007145   +3.89480165
 H   -2.37882623   +3.76653489   +5.45703914
 H   +0.13776859   +4.00375968   +5.26442699
 H   -0.30638509   +2.92277592   +6.54228995
 H   +1.60086338   +2.02250284   +5.15451945
 H   -0.85414704   +0.93239768   +3.72047920
 H   +0.76817627   -1.01328751   +3.76619119
 H   +2.11738262   +0.11202310   +3.87045603
 H   +0.49830737   -0.88694880   -0.37860407
 H   -1.04078073   +0.00836488   -0.29650177
 H   -2.65744058   +1.07835677   +5.66164551
22
 * E =  +0.721 kcal/mol ; (14) 181_053_119_356_064
 C   +0.00000000   +0.00000000   +0.00000000
 O   +0.00000000   +0.00000000   +1.41652815
 C   +1.20142839   +0.00000000   +1.98848314
 C   +1.10199126   -0.01701491   +3.48661621
 C   +0.23950210   -1.12598837   +3.99451820
 C   +0.68155157   -2.08866121   +4.79129559
 C   -0.12215057   -3.22703578   +5.32837873
 C   -1.57851744   -3.21105807   +4.99512749
 O   +2.22511670   +0.02256251   +1.36233212
 H   -1.67368759   -3.33400061   +3.62674604
 H   +0.49647622   +0.88790311   -0.37882430
 H   -2.10054579   -2.27944452   +5.18427810
 H   -2.13723509   -4.07814705   +5.32619197
 H   -0.00224984   -3.24960040   +6.41685821
 H   +0.32252340   -4.16261330   +4.98171658
 H   +1.72340014   -2.07497919   +5.09056225
 H   -0.78817741   -1.11846354   +3.65918861
 H   +2.11133664   -0.08505625   +3.87783964
 H   +0.68514895   +0.94598900   +3.78732502
 H   +0.51414487   -0.87848198   -0.37681600
 H   -1.04073799   -0.01146009   -0.29634345
 H   -1.70582602   -3.43199918   +2.72877463
22
 * E =  +0.738 kcal/mol ; (15) 177_158_227_004_295
 C   +0.00000000   +0.00000000   +0.00000000
 O   +0.00000000   +0.00000000   +1.41715020
 C   +1.20363390   +0.00000000   +1.98529164
 C   +1.10531449   +0.06120433   +3.48113215
 C   +2.32880827   -0.45062428   +4.15917662
 C   +2.29784958   -1.30062055   +5.17538297
 C   +3.47882834   -1.84189499   +5.91212764
 C   +4.80859386   -1.29811876   +5.50131379
 O   +2.22503244   -0.01205746   +1.35530992
 H   +5.01524106   -1.70060670   +4.20220357
 H   +0.50478037   +0.88328704   -0.37864329
 H   +5.66140703   -1.74218822   +6.00057697
 H   +4.88101407   -0.21840310   +5.43080741
 H   +3.48324333   -2.93002345   +5.81490152
 H   +3.32862901   -1.65977932   +6.98174901
 H   +1.33448249   -1.65666017   +5.52372328
 H   +3.26923204   -0.09286218   +3.76410717
 H   +0.94835062   +1.11631875   +3.72102621
 H   +0.20957078   -0.46192020   +3.80465334
 H   +0.50644757   -0.88251853   -0.37769222
 H   -1.04091634   -0.00108569   -0.29603451
 H   +5.13148462   -1.99901705   +3.35670624
22
 * E =  +0.807 kcal/mol ; (16) 180_051_120_239_067
 C   +0.00000000   +0.00000000   +0.00000000
 O   +0.00000000   +0.00000000   +1.41679663
 C   +1.20287701   +0.00000000   +1.98698116
 C   +1.10953580   +0.00899462   +3.48527938
 C   +0.20753540   -1.05126334   +4.02524469
 C   +0.60534976   -2.00864909   +4.85019626
 C   -0.27974034   -3.06874321   +5.41244706
 C   -0.32394130   -3.05792764   +6.91232605
 O   +2.22470602   +0.00907123   +1.35762111
 H   -0.94639564   -1.88155611   +7.26141686
 H   +0.49983533   +0.88610944   -0.37847989
 H   +0.63349464   -2.96610436   +7.41384860
 H   -0.96711144   -3.80092668   +7.36991991
 H   +0.08135758   -4.04784772   +5.08051226
 H   -1.28603934   -2.96393716   +5.00817666
 H   +1.64450595   -2.03694727   +5.16117518
 H   -0.82598877   -1.01078312   +3.70635480
 H   +2.11774026   -0.09069152   +3.87258459
 H   +0.73398684   +0.99355514   +3.77076293
 H   +0.51124717   -0.87986197   -0.37754911
 H   -1.04077378   -0.00674622   -0.29649064
 H   -1.37332035   -1.10759993   +7.44736340
22
 * E =  +0.814 kcal/mol ; (17) 179_050_120_000_180
 C   +0.00000000   +0.00000000   +0.00000000
 O   +0.00000000   +0.00000000   +1.41684519
 C   +1.20290331   +0.00000000   +1.98713331
 C   +1.11061079   +0.01332631   +3.48555857
 C   +0.18466953   -1.02385851   +4.03048955
 C   +0.57005777   -1.98432257   +4.85879493
 C   -0.30602601   -3.04816208   +5.44435886
 C   -1.74069401   -2.99165262   +5.02706474
 O   +2.22466692   +0.00768358   +1.35766048
 H   -2.35363832   -4.04529515   +5.66884170
 H   +0.50058436   +0.88567043   -0.37851048
 H   -1.94331883   -3.21556318   +3.98573846
 H   -2.31121239   -2.14558736   +5.39360387
 H   -0.23768665   -2.98873834   +6.53229874
 H   +0.11460185   -4.02037989   +5.18053154
 H   +1.61187596   -2.02680958   +5.15708220
 H   -0.84590448   -0.96055689   +3.70863075
 H   +2.11715968   -0.10748754   +3.87150634
 H   +0.76052156   +1.00850771   +3.76727843
 H   +0.51053131   -0.88026929   -0.37753889
 H   -1.04077116   -0.00591349   -0.29654222
 H   -2.71541995   -4.74382307   +6.10655235
22
 * E =  +0.849 kcal/mol ; (18) 180_310_241_240_067
 C   +0.00000000   +0.00000000   +0.00000000
 O   +0.00000000   +0.00000000   +1.41680283
 C   +1.20217592   +0.00000000   +1.98734320
 C   +1.10777790   +0.00439298   +3.48608447
 C   +0.19885987   +1.06593526   +4.01155940
 C   +0.59339247   +2.04782946   +4.80881229
 C   -0.29508256   +3.12274736   +5.33673348
 C   +0.14697584   +4.49645369   +4.92477383
 O   +2.22495591   -0.01848262   +1.35988086
 H   -0.03010699   +4.55482967   +3.56130168
 H   +0.51136520   +0.88010996   -0.37669672
 H   +1.20707833   +4.70303353   +5.02483889
 H   -0.47443274   +5.31457699   +5.27069204
 H   -0.30868493   +3.07236108   +6.43054345
 H   -1.32055202   +2.94782593   +5.01268192
 H   +1.63680998   +2.10080004   +5.10176598
 H   -0.83547983   +1.01102364   +3.69744344
 H   +0.73961323   -0.98019660   +3.78086077
 H   +2.11519883   +0.11490734   +3.87259760
 H   +0.49946451   -0.88630117   -0.37855727
 H   -1.04076197   +0.00767292   -0.29640973
 H   -0.17647341   +4.55776219   +2.67025283
22
 * E =  +1.690 kcal/mol ; (19) 180_118_010_117_179
 C   +0.00000000   +0.00000000   +0.00000000
 O   +0.00000000   +0.00000000   +1.41706531
 C   +1.20243462   +0.00000000   +1.98602936
 C   +1.11390239   +0.00382531   +3.48084230
 C   +1.70581265   -1.20638922   +4.13821651
 C   +2.44410577   -2.14854915   +3.56881542
 C   +2.98678292   -3.33457366   +4.29898992
 C   +2.41605032   -4.61396004   +3.75861146
 O   +2.22283280   +0.00281578   +1.35157758
 H   +2.99999907   -5.62573618   +4.47917649
 H   +0.51877045   +0.87523778   -0.37805115
 H   +2.70092380   -4.86627732   +2.74292015
 H   +1.35970523   -4.76961367   +3.94665691
 H   +2.76363348   -3.24625975   +5.36130319
 H   +4.07292423   -3.35452675   +4.20066448
 H   +2.68422334   -2.07925954   +2.51579781
 H   +1.49461934   -1.28080791   +5.19845542
 H   +1.63606781   +0.89514964   +3.83157522
 H   +0.07150512   +0.10816830   +3.76959820
 H   +0.49246323   -0.89046349   -0.37776931
 H   -1.04079783   +0.01441190   -0.29568043
 H   +3.41044054   -6.26080920   +4.97516659
22
 * E =  +1.965 kcal/mol ; (20) 179_252_350_240_299
 C   +0.00000000   +0.00000000   +0.00000000
 O   +0.00000000   +0.00000000   +1.41705596
 C   +1.20259064   +0.00000000   +1.98542367
 C   +1.11782457   +0.02975836   +3.48009819
 C   +1.52475108   +1.34438076   +4.07579341
 C   +2.10588105   +2.35576960   +3.44810469
 C   +2.47893282   +3.64278506   +4.10460858
 C   +1.78767741   +4.82498803   +3.49083603
 O   +2.22355869   -0.01344906   +1.35250775
 H   +2.18915969   +4.85596767   +2.17783113
 H   +0.49571441   +0.88877936   -0.37756378
 H   +2.11087374   +5.79784614   +3.84341143
 H   +0.71071236   +4.74208284   +3.39718801
 H   +3.55850300   +3.78690117   +4.03430809
 H   +2.24542182   +3.59144132   +5.17118393
 H   +2.34132859   +2.27225768   +2.39422063
 H   +1.31375107   +1.43828301   +5.13457442
 H   +0.10183572   -0.21084878   +3.78178723
 H   +1.76994000   -0.75659343   +3.86002183
 H   +0.51562826   -0.87712693   -0.37801170
 H   -1.04084266   -0.01074521   -0.29574515
 H   +2.48820065   +4.84710954   +1.32172673
22
 * E =  +2.037 kcal/mol ; (21) 180_117_010_354_064
 C   +0.00000000   +0.00000000   +0.00000000
 O   +0.00000000   +0.00000000   +1.41684330
 C   +1.20268665   +0.00000000   +1.98565792
 C   +1.11498249   +0.00547231   +3.48028582
 C   +1.69657500   -1.20763081   +4.14279857
 C   +2.41423393   -2.15999109   +3.56556324
 C   +2.97494378   -3.36189765   +4.25362105
 C   +2.81097660   -3.41057406   +5.73773589
 O   +2.22241146   +0.00219335   +1.34965462
 H   +1.45962827   -3.47759362   +5.99216307
 H   +0.51262066   +0.87887191   -0.37819199
 H   +3.10802761   -2.51874620   +6.27907025
 H   +3.15940963   -4.32091442   +6.21072656
 H   +4.04082040   -3.42562133   +4.01026561
 H   +2.53640934   -4.25744182   +3.80753604
 H   +2.63707660   -2.08565955   +2.50962690
 H   +1.48103236   -1.26970628   +5.20111709
 H   +1.64339494   +0.89376796   +3.82922916
 H   +0.07336814   +0.11750599   +3.76883406
 H   +0.49886557   -0.88684121   -0.37792673
 H   -1.04087109   +0.00724428   -0.29578846
 H   +0.56809516   -3.53745479   +6.13370524
22
 * E =  +2.117 kcal/mol ; (22) 180_119_010_121_293
 C   +0.00000000   +0.00000000   +0.00000000
 O   +0.00000000   +0.00000000   +1.41691628
 C   +1.20217881   +0.00000000   +1.98606205
 C   +1.11250457   +0.00452677   +3.48079397
 C   +1.73879527   -1.18416101   +4.14516416
 C   +2.50457446   -2.10744484   +3.58381809
 C   +3.08421036   -3.26785989   +4.32025676
 C   +2.66019536   -4.59007668   +3.75160253
 O   +2.22259801   +0.00487351   +1.35130906
 H   +1.31003592   -4.69078149   +3.99673909
 H   +0.51864084   +0.87526259   -0.37826835
 H   +3.04828022   -5.46683673   +4.25758592
 H   +2.70288235   -4.67569888   +2.67116073
 H   +2.81770678   -3.21339807   +5.37564697
 H   +4.17667950   -3.20510752   +4.27810772
 H   +2.74621458   -2.03590127   +2.53095984
 H   +1.52174361   -1.26202507   +5.20386086
 H   +1.60626395   +0.91310029   +3.82901365
 H   +0.06714757   +0.07876080   +3.76767788
 H   +0.49244347   -0.89053766   -0.37761182
 H   -1.04082248   +0.01405689   -0.29562012
 H   +0.42877003   -4.72684300   +4.19259665
22
 * E =  +2.170 kcal/mol ; (23) 180_114_011_000_180
 C   +0.00000000   +0.00000000   +0.00000000
 O   +0.00000000   +0.00000000   +1.41692907
 C   +1.20227880   +0.00000000   +1.98636357
 C   +1.11424284   -0.00235113   +3.48098802
 C   +1.63787952   -1.25137891   +4.12577182
 C   +2.33508448   -2.21370598   +3.53991119
 C   +2.84692996   -3.44900970   +4.21545916
 C   +2.52241542   -3.56950551   +5.66992752
 O   +2.22288375   +0.00326939   +1.35197860
 H   +3.07667524   -4.76297859   +6.07461368
 H   +0.51520000   +0.87739100   -0.37804047
 H   +1.47645316   -3.71665855   +5.91552845
 H   +3.01339264   -2.86221668   +6.32913961
 H   +3.92903385   -3.48726572   +4.07734787
 H   +2.45679520   -4.31707535   +3.68066780
 H   +2.58629997   -2.12294101   +2.49107754
 H   +1.40820368   -1.33026203   +5.18073072
 H   +1.68552706   +0.85479248   +3.83924367
 H   +0.07877362   +0.15483361   +3.77043648
 H   +0.49622832   -0.88832123   -0.37794876
 H   -1.04082370   +0.01031335   -0.29580293
 H   +3.45228793   -5.55017904   +6.29950823
22
 * E =  +8.313 kcal/mol ; (24) 003_186_131_115_179
 C   +0.00000000   +0.00000000   +0.00000000
 O   +0.00000000   +0.00000000   +1.40866949
 C   +1.14150343   +0.00000000   +2.10819452
 C   +2.43372513   +0.07244512   +1.33324008
 C   +3.62171783   -0.07302063   +2.21781144
 C   +4.62428575   -0.90571887   +1.97784955
 C   +5.82156004   -1.06989358   +2.85633202
 C   +5.87525420   -2.45068646   +3.44410453
 O   +1.09073671   -0.02810722   +3.30185057
 H   +7.01992603   -2.49767278   +4.19998878
 H   +0.54309378   +0.85043854   -0.40532904
 H   +6.03938990   -3.25869666   +2.73915613
 H   +5.10142550   -2.67786732   +4.16821977
 H   +5.79267463   -0.32694497   +3.65137904
 H   +6.72832738   -0.88605740   +2.27839143
 H   +4.58502036   -1.54285238   +1.10029740
 H   +3.63460110   +0.54859701   +3.10282197
 H   +2.44350568   -0.67998820   +0.54637466
 H   +2.45004527   +1.04060982   +0.82504746
 H   +0.41400020   -0.92356386   -0.39856199
 H   -1.03951672   +0.07417930   -0.29389743
 H   +7.78561305   -2.48720939   +4.68033090
22
 * E =  +8.330 kcal/mol ; (25) 003_186_131_121_061
 C   +0.00000000   +0.00000000   +0.00000000
 O   +0.00000000   +0.00000000   +1.40879567
 C   +1.14209478   +0.00000000   +2.10719900
 C   +2.43309671   +0.07663261   +1.33111413
 C   +3.62236997   -0.08227876   +2.21180688
 C   +4.62413244   -0.91011605   +1.95651110
 C   +5.82607178   -1.08146168   +2.82313357
 C   +5.98916302   -2.49322835   +3.30448850
 O   +1.09242382   -0.03032497   +3.30097313
 H   +6.14523453   -3.25380476   +2.17126404
 H   +0.55555520   +0.84240635   -0.40510257
 H   +5.11229735   -2.93691736   +3.76194584
 H   +6.90581808   -2.70735321   +3.84194067
 H   +5.75657363   -0.40412887   +3.67745600
 H   +6.72118140   -0.78817752   +2.27132661
 H   +4.58712664   -1.53257044   +1.06841228
 H   +3.63453660   +0.52363841   +3.10776774
 H   +2.44032223   -0.66666964   +0.53572494
 H   +2.45100529   +1.05065726   +0.83411302
 H   +0.40147281   -0.92940814   -0.39779341
 H   -1.03831417   +0.08855845   -0.29415001
 H   +6.25813014   -3.70890360   +1.39453294
22
 * E =  +8.399 kcal/mol ; (26) 357_173_229_116_178
 C   +0.00000000   +0.00000000   +0.00000000
 O   +0.00000000   +0.00000000   +1.40874669
 C   +1.14207601   +0.00000000   +2.10733672
 C   +2.43334417   -0.07031062   +1.33079393
 C   +3.62267645   +0.09403072   +2.21040489
 C   +4.61838081   +0.93089227   +1.95654388
 C   +5.83231517   +1.09233212   +2.81226209
 C   +7.07568856   +0.68215511   +2.07689215
 O   +1.09253763   +0.02533994   +3.30104191
 H   +8.12044352   +0.90640037   +2.93758445
 H   +0.39872554   +0.93055014   -0.39799210
 H   +7.34884648   +1.30001608   +1.22808283
 H   +7.16563154   -0.37769962   +1.86722600
 H   +5.71915903   +0.49910469   +3.71779351
 H   +5.92213416   +2.13418370   +3.12240551
 H   +4.57899216   +1.54531195   +1.06294600
 H   +3.63887765   -0.51079772   +3.10688762
 H   +2.45561677   -1.04471640   +0.83450408
 H   +2.43626487   +0.67226309   +0.53471387
 H   +0.55777942   -0.84093423   -0.40515736
 H   -1.03806519   -0.09144335   -0.29415839
 H   +8.78071592   +1.07409400   +3.53215899
22
 * E =  +8.402 kcal/mol ; (27) 357_174_229_121_061
 C   +0.00000000   +0.00000000   +0.00000000
 O   +0.00000000   +0.00000000   +1.40878681
 C   +1.14192163   +0.00000000   +2.10750279
 C   +2.43322243   -0.07817663   +1.33211225
 C   +3.62211027   +0.08504228   +2.21274013
 C   +4.62498793   +0.91025453   +1.95327324
 C   +5.83072602   +1.07858027   +2.81505022
 C   +7.10721527   +0.76620170   +2.09101780
 O   +1.09187321   +0.03011723   +3.30123769
 H   +7.17070927   +1.65717855   +1.04793863
 H   +0.40408978   +0.92820280   -0.39794000
 H   +7.13566819   -0.18856548   +1.57804061
 H   +8.02262528   +0.98838656   +2.62734088
 H   +5.73779655   +0.44107657   +3.69728162
 H   +5.87317864   +2.10495089   +3.18387796
 H   +4.59590166   +1.51750609   +1.05443247
 H   +3.63060050   -0.51239741   +3.11443827
 H   +2.45176567   -1.05471040   +0.84001147
 H   +2.44057635   +0.66118246   +0.53317186
 H   +0.55294342   -0.84410974   -0.40519393
 H   -1.03859410   -0.08556083   -0.29405948
 H   +7.17501526   +2.27342133   +0.38174317
22
 * E =  +8.545 kcal/mol ; (28) 003_185_129_005_295
 C   +0.00000000   +0.00000000   +0.00000000
 O   +0.00000000   +0.00000000   +1.40859641
 C   +1.14254164   +0.00000000   +2.10720677
 C   +2.43376021   +0.06865227   +1.33067100
 C   +3.62225374   -0.06966800   +2.21565604
 C   +4.60625183   -0.92709035   +1.98955696
 C   +5.82785945   -1.10599882   +2.82961517
 C   +5.87116546   -0.30211852   +4.08837144
 O   +1.09205720   -0.02733470   +3.30095911
 H   +5.91182120   +1.01988456   +3.70699203
 H   +0.55085255   +0.84550735   -0.40509124
 H   +6.78831224   -0.38730697   +4.65858945
 H   +4.98345844   -0.34298184   +4.70969622
 H   +6.70915076   -0.88652038   +2.22241821
 H   +5.91872286   -2.16869560   +3.07831096
 H   +4.54476767   -1.57218103   +1.11978786
 H   +3.64407997   +0.58138917   +3.07715917
 H   +2.44159270   -0.68929736   +0.54885466
 H   +2.45026527   +1.03360605   +0.81661658
 H   +0.40673341   -0.92698481   -0.39824804
 H   -1.03878315   +0.08277233   -0.29429149
 H   +5.95763685   +1.87688683   +3.42189184
22
 * E =  +8.736 kcal/mol ; (29) 357_174_229_122_294
 C   +0.00000000   +0.00000000   +0.00000000
 O   +0.00000000   +0.00000000   +1.40871430
 C   +1.14241671   +0.00000000   +2.10712196
 C   +2.43321842   -0.07116570   +1.33037682
 C   +3.62325749   +0.07311262   +2.21216789
 C   +4.62260125   +0.90837965   +1.97395710
 C   +5.83222813   +1.05225842   +2.83353854
 C   +7.10991414   +0.78334908   +2.09438961
 O   +1.09271099   +0.02744345   +3.30084611
 H   +7.07822610   -0.55089605   +1.75891437
 H   +0.40385405   +0.92830017   -0.39810304
 H   +8.01763338   +0.84949604   +2.68319239
 H   +7.20505870   +1.25836600   +1.12366297
 H   +5.75212651   +0.39253908   +3.69648598
 H   +5.86672835   +2.07139125   +3.23267297
 H   +4.58460582   +1.54179730   +1.09312730
 H   +3.64005605   -0.55322087   +3.09362196
 H   +2.45078414   -1.03933268   +0.82234762
 H   +2.44113682   +0.68145537   +0.54366160
 H   +0.55333549   -0.84384638   -0.40514536
 H   -1.03853550   -0.08586367   -0.29421734
 H   +7.02555575   -1.43255507   +1.56933279
22
 * E =  +8.781 kcal/mol ; (30) 357_273_128_239_299
 C   +0.00000000   +0.00000000   +0.00000000
 O   +0.00000000   +0.00000000   +1.41077031
 C   +1.13902231   +0.00000000   +2.10800791
 C   +2.45041832   -0.06496833   +1.36040323
 C   +2.82751065   -1.48756880   +1.08647653
 C   +3.14506921   -1.96581778   -0.10841609
 C   +3.55250278   -3.37483597   -0.38036807
 C   +4.91888625   -3.46943483   -0.99335096
 O   +1.09031428   +0.01030438   +3.30351745
 H   +4.83613329   -2.79107098   -2.18447503
 H   +0.36001156   +0.94837673   -0.39299942
 H   +5.22209787   -4.45686262   -1.32140788
 H   +5.70526498   -2.93203855   -0.47573672
 H   +2.82949737   -3.84088624   -1.05252009
 H   +3.51986462   -3.94846324   +0.54873748
 H   +3.13484414   -1.29961488   -0.96539876
 H   +2.84464474   -2.14320733   +1.94884945
 H   +2.42897364   +0.50580686   +0.43582816
 H   +3.18081412   +0.38829991   +2.02562147
 H   +0.59307612   -0.81809949   -0.39864241
 H   -1.03452917   -0.13025312   -0.29256637
 H   +4.72449467   -2.34429045   -2.96615611
22
 * E =  +8.783 kcal/mol ; (31) 357_274_128_117_178
 C   +0.00000000   +0.00000000   +0.00000000
 O   +0.00000000   +0.00000000   +1.41057425
 C   +1.13927624   +0.00000000   +2.10781468
 C   +2.45025301   -0.07329141   +1.35997501
 C   +2.81756786   -1.49789853   +1.08359345
 C   +3.14221037   -1.97380723   -0.11119750
 C   +3.52226568   -3.39162165   -0.38891740
 C   +2.53786139   -4.04848663   -1.31363619
 O   +1.09066985   +0.01578712   +3.30312560
 H   +3.00479921   -5.31976811   -1.52442694
 H   +0.36233928   +0.94767206   -0.39275703
 H   +2.50093145   -3.65361643   -2.32332871
 H   +1.55283236   -4.22580646   -0.89705347
 H   +3.58048275   -3.94251765   +0.54808943
 H   +4.51564117   -3.41981077   -0.83851447
 H   +3.13034902   -1.30504122   -0.96615370
 H   +2.82794060   -2.15637144   +1.94373926
 H   +2.43237096   +0.49943613   +0.43642223
 H   +3.18383180   +0.37428130   +2.02555628
 H   +0.59136782   -0.81949830   -0.39844946
 H   -1.03481224   -0.12771024   -0.29275829
 H   +3.35064737   -6.14724074   -1.64087408
22
 * E =  +8.797 kcal/mol ; (32) 357_274_128_245_181
 C   +0.00000000   +0.00000000   +0.00000000
 O   +0.00000000   +0.00000000   +1.41057034
 C   +1.13876931   +0.00000000   +2.10834190
 C   +2.45035398   -0.07433424   +1.36175494
 C   +2.81612453   -1.49853801   +1.08130569
 C   +3.14146146   -1.97137008   -0.11461708
 C   +3.55274409   -3.38098978   -0.38989103
 C   +4.97595367   -3.44765048   -0.86495303
 O   +1.08951672   +0.01698574   +3.30363993
 H   +5.23198749   -4.77268938   -1.11165460
 H   +0.36177536   +0.94787510   -0.39277555
 H   +5.72647386   -3.19509226   -0.12478689
 H   +5.17376883   -2.99689148   -1.83147938
 H   +2.89768672   -3.81137011   -1.14860595
 H   +3.43094554   -3.97764644   +0.51239997
 H   +3.14479581   -1.29653231   -0.96489846
 H   +2.81868057   -2.16131024   +1.93823236
 H   +2.43522543   +0.50153149   +0.44008289
 H   +3.18390703   +0.36974277   +2.02987150
 H   +0.59153661   -0.81930528   -0.39850574
 H   -1.03474831   -0.12823960   -0.29268880
 H   +5.35687809   -5.65433991   -1.26645250
22
 * E =  +8.829 kcal/mol ; (33) 353_283_353_239_062
 C   +0.00000000   +0.00000000   +0.00000000
 O   +0.00000000   +0.00000000   +1.41227045
 C   +1.13985358   +0.00000000   +2.11084808
 C   +2.43474717   -0.16022436   +1.35946893
 C   +2.69615948   -1.57800141   +0.94864148
 C   +1.97844101   -2.63169928   +1.30960275
 C   +2.25794421   -4.03003617   +0.87413274
 C   +1.10333666   -4.63988148   +0.13494179
 O   +1.09043229   +0.08683055   +3.30315919
 H   +0.93587422   -3.86466870   -0.99129624
 H   +0.37752596   +0.94309459   -0.38916912
 H   +0.13456793   -4.54783583   +0.61407243
 H   +1.27451727   -5.62551641   -0.28200182
 H   +2.47396077   -4.64389227   +1.75451791
 H   +3.15472378   -4.05550816   +0.25623810
 H   +1.11500927   -2.49683100   +1.95314730
 H   +3.55933282   -1.72138399   +0.31013070
 H   +2.45275882   +0.48187206   +0.47926827
 H   +3.22173536   +0.18618076   +2.02460330
 H   +0.57499894   -0.83059138   -0.40050873
 H   -1.03695483   -0.10910950   -0.29226793
 H   +0.86527304   -3.32562651   -1.71324754
22
 * E =  +8.876 kcal/mol ; (34) 008_078_004_245_181
 C   +0.00000000   +0.00000000   +0.00000000
 O   +0.00000000   +0.00000000   +1.41119777
 C   +1.14179663   +0.00000000   +2.10806319
 C   +2.43468070   +0.17648268   +1.35653519
 C   +2.70087923   +1.60277659   +0.97917985
 C   +1.95708615   +2.64715358   +1.31884254
 C   +2.27951215   +4.06242037   +0.96467255
 C   +2.55610370   +4.87746612   +2.19527625
 O   +1.09466034   -0.09912860   +3.29902828
 H   +2.81742581   +6.15094834   +1.75296320
 H   +0.59270670   +0.81866835   -0.39922919
 H   +3.46345860   +4.62093050   +2.72975941
 H   +1.71195080   +5.03499703   +2.85740896
 H   +1.44281311   +4.50280960   +0.42075104
 H   +3.14130856   +4.08569282   +0.29929246
 H   +1.06571056   +2.49769608   +1.91906886
 H   +3.59799978   +1.76297961   +0.39334547
 H   +3.22183095   -0.18208059   +2.01507128
 H   +2.45429813   -0.44916066   +0.46438062
 H   +0.35974353   -0.94990862   -0.38946450
 H   -1.03432737   +0.12947408   -0.29349244
 H   +2.97947766   +6.97385528   +1.41766283
22
 * E =  +8.948 kcal/mol ; (35) 002_083_229_235_060
 C   +0.00000000   +0.00000000   +0.00000000
 O   +0.00000000   +0.00000000   +1.41145938
 C   +1.13682355   +0.00000000   +2.11064401
 C   +2.45063069   +0.05315477   +1.36563753
 C   +2.80027510   +1.46213315   +1.00130133
 C   +3.17823140   +1.85379498   -0.20696266
 C   +3.53093079   +3.25481454   -0.57622461
 C   +2.72843744   +3.76151539   -1.73840187
 O   +1.08575021   -0.00567028   +3.30634664
 H   +1.41099297   +3.70220832   -1.34050731
 H   +0.57304020   +0.83236244   -0.39800320
 H   +2.72102533   +3.12652197   -2.61816022
 H   +2.85541163   +4.81002456   -1.98088560
 H   +4.59332788   +3.30204954   -0.83793358
 H   +3.40020336   +3.90740056   +0.28555468
 H   +3.23304956   +1.11973871   -1.00527523
 H   +2.74237601   +2.18618251   +1.80508686
 H   +3.18603813   -0.34500342   +2.05996712
 H   +2.44302659   -0.57496151   +0.47806893
 H   +0.38072153   -0.94066674   -0.39239122
 H   -1.03738599   +0.10688770   -0.29157585
 H   +0.56040064   +3.63785349   -1.04271138
22
 * E =  +8.971 kcal/mol ; (36) 353_282_352_004_297
 C   +0.00000000   +0.00000000   +0.00000000
 O   +0.00000000   +0.00000000   +1.41147049
 C   +1.14171982   +0.00000000   +2.10804051
 C   +2.43434736   -0.16268076   +1.35411135
 C   +2.70302681   -1.58387653   +0.95645041
 C   +1.99527600   -2.63467854   +1.34728957
 C   +2.26048707   -4.05668298   +0.97636304
 C   +3.48852469   -4.30300566   +0.16238322
 O   +1.09375503   +0.08790010   +3.30028195
 H   +3.30291369   -3.64950867   -1.03550417
 H   +0.35933136   +0.95013241   -0.38932978
 H   +3.62470033   -5.32478947   -0.17044774
 H   +4.40513481   -3.85886467   +0.53502695
 H   +1.38713019   -4.45097355   +0.45217618
 H   +2.31684120   -4.64307231   +1.89937925
 H   +1.14099266   -2.48262201   +1.99755919
 H   +3.55921220   -1.72029218   +0.30975606
 H   +2.44851583   +0.47217636   +0.46874150
 H   +3.22169387   +0.19247409   +2.01424635
 H   +0.59366713   -0.81783128   -0.39938791
 H   -1.03434954   -0.12995325   -0.29324806
 H   +3.14169247   -3.22115681   -1.81584472
22
 * E =  +8.978 kcal/mol ; (37) 353_281_356_243_182
 C   +0.00000000   +0.00000000   +0.00000000
 O   +0.00000000   +0.00000000   +1.41105222
 C   +1.14183045   +0.00000000   +2.10783158
 C   +2.43598203   -0.16407070   +1.35557766
 C   +2.71532807   -1.58727750   +0.97607579
 C   +1.98448886   -2.63961440   +1.31886653
 C   +2.30430466   -4.04847633   +0.93818756
 C   +1.23100885   -4.63774647   +0.06878345
 O   +1.09422667   +0.09085174   +3.29941372
 H   +1.61443552   -5.93021186   -0.18328883
 H   +0.35845414   +0.95032756   -0.38966757
 H   +1.15410188   -4.21858762   -0.92823031
 H   +0.26403505   -4.77639605   +0.53990803
 H   +2.40763622   -4.65022081   +1.84186538
 H   +3.26297257   -4.07969863   +0.42275776
 H   +1.08735382   -2.49909345   +1.91258165
 H   +3.61527735   -1.73832460   +0.39218268
 H   +2.45038977   +0.46313782   +0.46434809
 H   +3.21989810   +0.20029306   +2.01468813
 H   +0.59408998   -0.81784576   -0.39879754
 H   -1.03408606   -0.13124100   -0.29360327
 H   +1.90338273   -6.77567499   -0.32147181
22
 * E =  +9.125 kcal/mol ; (38) 357_274_128_005_296
 C   +0.00000000   +0.00000000   +0.00000000
 O   +0.00000000   +0.00000000   +1.41028949
 C   +1.13993117   +0.00000000   +2.10769610
 C   +2.45036996   -0.07492888   +1.35969868
 C   +2.81730268   -1.50004724   +1.08287809
 C   +3.13017076   -1.96790392   -0.11774505
 C   +3.53685204   -3.36770776   -0.44192692
 C   +3.47341864   -4.34206769   +0.68923131
 O   +1.08993174   +0.01786022   +3.30290212
 H   +4.39691910   -3.92410390   +1.61979618
 H   +0.36212061   +0.94766037   -0.39307299
 H   +3.83627527   -5.33662937   +0.46031150
 H   +2.55059055   -4.35415065   +1.25866959
 H   +4.54825794   -3.34993221   -0.85424530
 H   +2.90871957   -3.72644606   -1.26431274
 H   +3.11364544   -1.28388579   -0.95989812
 H   +2.84031279   -2.15028188   +1.94707747
 H   +2.43184867   +0.49887541   +0.43669702
 H   +3.18500770   +0.37106412   +2.02511733
 H   +0.59164821   -0.81925052   -0.39843715
 H   -1.03481706   -0.12785797   -0.29289374
 H   +5.02469475   -3.63285064   +2.20164051
22
 * E =  +9.127 kcal/mol ; (39) 357_275_130_357_064
 C   +0.00000000   +0.00000000   +0.00000000
 O   +0.00000000   +0.00000000   +1.41049521
 C   +1.13957952   +0.00000000   +2.10694275
 C   +2.45038986   -0.06570069   +1.35808112
 C   +2.81331481   -1.48385210   +1.04288139
 C   +3.16402995   -1.91109290   -0.16243849
 C   +3.56207998   -3.30374470   -0.52588289
 C   +3.62126570   -4.27932592   +0.60431698
 O   +1.09143027   +0.01526035   +3.30239608
 H   +2.33825719   -4.39032865   +1.08926270
 H   +0.35922855   +0.94909423   -0.39245355
 H   +4.18121586   -3.96505715   +1.47810550
 H   +3.83267697   -5.30245204   +0.31850524
 H   +4.53826705   -3.26173250   -1.02055628
 H   +2.87892326   -3.67428177   -1.29360820
 H   +3.17589249   -1.19824524   -0.98037439
 H   +2.78609428   -2.16879929   +1.87982854
 H   +2.43557795   +0.53273081   +0.45048044
 H   +3.18505299   +0.36138147   +2.03589011
 H   +0.59392926   -0.81751575   -0.39822646
 H   -1.03440277   -0.13095770   -0.29278602
 H   +1.48009413   -4.44882363   +1.36850909
22
 * E =  +9.163 kcal/mol ; (40) 357_274_128_000_180
 C   +0.00000000   +0.00000000   +0.00000000
 O   +0.00000000   +0.00000000   +1.41049518
 C   +1.13951509   +0.00000000   +2.10760249
 C   +2.45050007   -0.07208894   +1.36021354
 C   +2.81976672   -1.49662003   +1.08388343
 C   +3.14434875   -1.96423786   -0.11370487
 C   +3.55107935   -3.36946586   -0.43188734
 C   +3.57231896   -4.30567025   +0.73394103
 O   +1.09040417   +0.01497142   +3.30301409
 H   +3.96495404   -5.52110909   +0.21906847
 H   +0.36019462   +0.94845143   -0.39284115
 H   +2.60959956   -4.54817403   +1.16951763
 H   +4.33703655   -4.12129768   +1.47993309
 H   +4.53768503   -3.34110553   -0.89827964
 H   +2.87909597   -3.75564802   -1.20088797
 H   +3.13318776   -1.28305551   -0.95875430
 H   +2.82825733   -2.15267640   +1.94477979
 H   +2.43244871   +0.50150611   +0.43709756
 H   +3.18318194   +0.37632649   +2.02623973
 H   +0.59326814   -0.81812551   -0.39840463
 H   -1.03449849   -0.13006385   -0.29286384
 H   +4.22372966   -6.29538215   -0.15974198
22
 * E =  +9.177 kcal/mol ; (41) 003_187_132_355_065
 C   +0.00000000   +0.00000000   +0.00000000
 O   +0.00000000   +0.00000000   +1.40836295
 C   +1.14251616   +0.00000000   +2.10811710
 C   +2.43337161   +0.07734004   +1.33194540
 C   +3.62612436   -0.09847699   +2.20583079
 C   +4.62727731   -0.91564219   +1.91362861
 C   +5.86006423   -1.13000985   +2.72846968
 C   +6.00593555   -0.25523000   +3.93125589
 O   +1.09116822   -0.02776201   +3.30132861
 H   +4.98635405   -0.58913999   +4.79166665
 H   +0.55903137   +0.83991948   -0.40569496
 H   +5.84580507   +0.80528884   +3.77066357
 H   +6.87636802   -0.45779945   +4.54359242
 H   +6.72939000   -0.99655157   +2.07572410
 H   +5.89996717   -2.17873106   +3.03192778
 H   +4.56877796   -1.50367969   +1.00397357
 H   +3.63054503   +0.47900339   +3.11886707
 H   +2.43430500   -0.65349192   +0.52503281
 H   +2.45427481   +1.05866928   +0.84913728
 H   +0.39714718   -0.93119767   -0.39820793
 H   -1.03795315   +0.09303966   -0.29433526
 H   +4.31872237   -0.84481132   +5.34521349
22
 * E =  +9.239 kcal/mol ; (42) 003_086_232_121_294
 C   +0.00000000   +0.00000000   +0.00000000
 O   +0.00000000   +0.00000000   +1.41038636
 C   +1.13939483   +0.00000000   +2.10795810
 C   +2.45050268   +0.06993147   +1.36045346
 C   +2.82359123   +1.49335553   +1.08619399
 C   +3.14197491   +1.97216579   -0.10796977
 C   +3.55047117   +3.38035004   -0.37909355
 C   +4.92138668   +3.48235928   -0.98105481
 O   +1.08982722   -0.01403452   +3.30322564
 H   +5.79287125   +3.05083541   -0.00753121
 H   +0.59244534   +0.81867214   -0.39856778
 H   +5.27500781   +4.48825918   -1.17542039
 H   +5.13347513   +2.79867784   -1.79608354
 H   +3.50102697   +3.96250953   +0.54023537
 H   +2.83074701   +3.83616328   -1.06719102
 H   +3.13241491   +1.30308790   -0.96330552
 H   +2.84256511   +2.14846442   +1.94858497
 H   +3.18326497   -0.37975589   +2.02546581
 H   +2.43094840   -0.50170275   +0.43628517
 H   +0.36093814   -0.94807685   -0.39308463
 H   -1.03463618   +0.12927471   -0.29279028
 H   +6.33127514   +2.77463072   +0.66255823
22
 * E =  +9.251 kcal/mol ; (43) 007_079_007_006_296
 C   +0.00000000   +0.00000000   +0.00000000
 O   +0.00000000   +0.00000000   +1.41080655
 C   +1.14233712   +0.00000000   +2.10759234
 C   +2.43593957   +0.15862111   +1.35420806
 C   +2.71795394   +1.57936611   +0.96472181
 C   +2.00503377   +2.63273071   +1.33897547
 C   +2.29668675   +4.05577519   +0.99267555
 C   +3.41612964   +4.28100176   +0.02906828
 O   +1.09337631   -0.08661253   +3.29958297
 H   +4.56737393   +3.83479548   +0.63742629
 H   +0.59819494   +0.81495537   -0.39869363
 H   +3.66347938   +5.31951619   -0.15467685
 H   +3.38834005   +3.69158569   -0.88126802
 H   +2.49257857   +4.60297747   +1.91733702
 H   +1.38193528   +4.50657278   +0.59367552
 H   +1.13698395   +2.48404978   +1.97163523
 H   +3.60166886   +1.71522794   +0.35594934
 H   +3.22076215   -0.20268166   +2.01399274
 H   +2.44777551   -0.47413481   +0.46711050
 H   +0.35451834   -0.95180786   -0.38979878
 H   -1.03349465   +0.13562529   -0.29387505
 H   +5.31220253   +3.54851655   +1.06315492
22
 * E =  +9.298 kcal/mol ; (44) 352_282_359_121_063
 C   +0.00000000   +0.00000000   +0.00000000
 O   +0.00000000   +0.00000000   +1.41102652
 C   +1.14168780   +0.00000000   +2.10813165
 C   +2.43501751   -0.18443153   +1.35862336
 C   +2.70261316   -1.61013012   +0.98138246
 C   +1.93418315   -2.65098278   +1.26983834
 C   +2.25551801   -4.06096470   +0.90290552
 C   +2.34045238   -4.95981823   +2.10174093
 O   +1.09541573   +0.11013256   +3.29798073
 H   +1.08789186   -4.94749831   +2.66209034
 H   +0.35961618   +0.95017280   -0.38910221
 H   +2.96120336   -4.60238083   +2.91515761
 H   +2.47789192   -6.01398334   +1.89062912
 H   +3.19663435   -4.08798934   +0.34807835
 H   +1.49044521   -4.44624151   +0.22595837
 H   +1.01443877   -2.50416038   +1.82696006
 H   +3.62605250   -1.77232411   +0.43816262
 H   +2.45953749   +0.44156108   +0.46641280
 H   +3.22120476   +0.17234636   +2.01897633
 H   +0.59304148   -0.81814513   -0.39975066
 H   -1.03424215   -0.12989112   -0.29359454
 H   +0.24015152   -4.91915691   +2.98279287
22
 * E =  +9.321 kcal/mol ; (45) 353_281_000_240_300
 C   +0.00000000   +0.00000000   +0.00000000
 O   +0.00000000   +0.00000000   +1.41098294
 C   +1.14112335   +0.00000000   +2.10843339
 C   +2.43641343   -0.17162652   +1.35894814
 C   +2.71935604   -1.59476665   +0.98338295
 C   +1.95483750   -2.64148986   +1.26047080
 C   +2.28801608   -4.04821860   +0.89185784
 C   +1.26169409   -4.67247255   -0.00774727
 O   +1.09380355   +0.10137217   +3.29907865
 H   +0.07963284   -4.64802871   +0.69120728
 H   +0.34787543   +0.95464551   -0.38885858
 H   +1.38388335   -5.73234560   -0.19878999
 H   +1.01192148   -4.10791922   -0.89921903
 H   +2.37532074   -4.64650955   +1.80020083
 H   +3.26914559   -4.07659430   +0.41127658
 H   +1.01969570   -2.50023855   +1.79261089
 H   +3.65363488   -1.74998931   +0.45690795
 H   +2.45587252   +0.45437454   +0.46658649
 H   +3.21833259   +0.19252437   +2.02033640
 H   +0.60310216   -0.81084677   -0.39962280
 H   -1.03246202   -0.14313253   -0.29366826
 H   -0.67730698   -4.62202156   +1.18971623
22
 * E =  +9.365 kcal/mol ; (46) 353_281_355_000_180
 C   +0.00000000   +0.00000000   +0.00000000
 O   +0.00000000   +0.00000000   +1.41101022
 C   +1.14194412   +0.00000000   +2.10791739
 C   +2.43608951   -0.16154884   +1.35546170
 C   +2.71769546   -1.58316895   +0.96997900
 C   +1.98657231   -2.63348187   +1.31661352
 C   +2.27892302   -4.05895253   +0.96384718
 C   +3.50965941   -4.27694639   +0.14320923
 O   +1.09371927   +0.08967437   +3.29966820
 H   +3.57973492   -5.63606954   -0.06074404
 H   +0.35254680   +0.95263235   -0.38949568
 H   +4.45404854   -4.07700716   +0.63690215
 H   +3.47923693   -3.90251951   -0.87409905
 H   +1.41164721   -4.46822967   +0.44230443
 H   +2.35173861   -4.62776906   +1.89244056
 H   +1.09740457   -2.48456224   +1.91996459
 H   +3.61346628   -1.72592346   +0.37934371
 H   +2.44933035   +0.46917349   +0.46674714
 H   +3.21946651   +0.20182677   +2.01574376
 H   +0.59949814   -0.81378702   -0.39902420
 H   -1.03324660   -0.13754666   -0.29372166
 H   +3.58843914   -6.52965678   -0.17251549
22
 * E =  +9.438 kcal/mol ; (47) 007_078_007_242_069
 C   +0.00000000   +0.00000000   +0.00000000
 O   +0.00000000   +0.00000000   +1.41090067
 C   +1.14209230   +0.00000000   +2.10798181
 C   +2.43478829   +0.17299751   +1.35563355
 C   +2.69945192   +1.59782392   +0.97112643
 C   +1.97996246   +2.64660177   +1.34362348
 C   +2.29239640   +4.05767645   +0.97656461
 C   +2.58370391   +4.91468096   +2.17400078
 O   +1.09388664   -0.09610296   +3.29914048
 H   +3.78081592   +4.45846200   +2.67367824
 H   +0.58826532   +0.82195129   -0.39913678
 H   +1.91812222   +4.78917208   +3.02078920
 H   +2.80692526   +5.95426083   +1.96335473
 H   +1.44059832   +4.48458592   +0.43738014
 H   +3.13460514   +4.08503187   +0.28530474
 H   +1.11246612   +2.50146390   +1.97947525
 H   +3.57706723   +1.75242409   +0.35528439
 H   +3.22311026   -0.18144847   +2.01496263
 H   +2.45361684   -0.45685133   +0.46662439
 H   +0.36539565   -0.94761502   -0.38990930
 H   -1.03505712   +0.12355242   -0.29360161
 H   +4.57926753   +4.14094833   +2.95157226
22
 * E =  +9.926 kcal/mol ; (48) 351_277_248_244_181
 C   +0.00000000   +0.00000000   +0.00000000
 O   +0.00000000   +0.00000000   +1.40901243
 C   +1.13844354   +0.00000000   +2.11428491
 C   +2.44391478   -0.20617408   +1.38068787
 C   +2.71427342   -1.66160414   +1.15826698
 C   +3.69653072   -2.32670590   +1.75053657
 C   +3.96861010   -3.78359503   +1.56763327
 C   +3.77837843   -4.53290948   +2.85526958
 O   +1.08418163   +0.12539888   +3.30134105
 H   +4.06971267   -5.84461249   +2.57424317
 H   +0.40465467   +0.92949646   -0.39439157
 H   +2.75805150   -4.58689364   +3.21672736
 H   +4.48860111   -4.30667103   +3.64291748
 H   +4.99145926   -3.92246605   +1.21523374
 H   +3.30885957   -4.18534497   +0.80009302
 H   +4.34535625   -1.79876622   +2.44012528
 H   +2.05762945   -2.19416705   +0.48030542
 H   +2.44925949   +0.33282704   +0.43460989
 H   +3.21387178   +0.21759600   +2.01603148
 H   +0.54899343   -0.84297092   -0.41092162
 H   -1.03928273   -0.08236747   -0.29318926
 H   +4.27430228   -6.69438147   +2.34535330
22
 * E =  +9.982 kcal/mol ; (49) 010_082_114_006_296
 C   +0.00000000   +0.00000000   +0.00000000
 O   +0.00000000   +0.00000000   +1.40944385
 C   +1.13894539   +0.00000000   +2.11422824
 C   +2.44127125   +0.22008329   +1.38049945
 C   +2.69366348   +1.67870052   +1.15617805
 C   +3.69192441   +2.34034009   +1.72369091
 C   +4.00191527   +3.78971108   +1.54640711
 C   +3.00645854   +4.57921385   +0.76041015
 O   +1.08548414   -0.13476683   +3.30049926
 H   +3.00325873   +4.06338167   -0.51705203
 H   +0.54692871   +0.84371790   -0.41186491
 H   +3.28075712   +5.60983542   +0.57077308
 H   +1.97003874   +4.47047529   +1.06125333
 H   +4.99019411   +3.88436516   +1.09098328
 H   +4.10963189   +4.23732227   +2.53991374
 H   +4.36255454   +1.79825014   +2.37974627
 H   +2.01390414   +2.20133599   +0.49638594
 H   +3.21712824   -0.19662163   +2.01333703
 H   +2.44940266   -0.31742247   +0.43339573
 H   +0.40711632   -0.92873512   -0.39364796
 H   -1.03962048   +0.07917800   -0.29291460
 H   +3.03003539   +3.71556459   -1.35148973
22
 * E = +10.001 kcal/mol ; (50) 009_083_111_243_181
 C   +0.00000000   +0.00000000   +0.00000000
 O   +0.00000000   +0.00000000   +1.40891030
 C   +1.13862436   +0.00000000   +2.11379730
 C   +2.44502300   +0.19725078   +1.37903728
 C   +2.72550533   +1.64981753   +1.15044886
 C   +3.69719605   +2.31594735   +1.75878473
 C   +3.99873393   +3.76307262   +1.54744897
 C   +5.36964024   +3.95543386   +0.96533295
 O   +1.08467015   -0.12100982   +3.30125609
 H   +5.54215313   +5.31099547   +0.84041374
 H   +0.55113458   +0.84161918   -0.41078190
 H   +5.49786187   +3.60661961   -0.05305944
 H   +6.19887965   +3.68115132   +1.60828107
 H   +3.93371723   +4.28719719   +2.50173579
 H   +3.24813700   +4.20129195   +0.89156685
 H   +4.33723241   +1.78795918   +2.45648319
 H   +2.08156870   +2.18110396   +0.45948862
 H   +3.21222715   -0.22892771   +2.01609823
 H   +2.44706339   -0.34543288   +0.43498406
 H   +0.40206577   -0.93057790   -0.39451544
 H   -1.03903763   +0.08526768   -0.29324436
 H   +5.61573634   +6.20967157   +0.77862270
22
 * E = +10.355 kcal/mol ; (51) 351_277_248_000_180
 C   +0.00000000   +0.00000000   +0.00000000
 O   +0.00000000   +0.00000000   +1.40888401
 C   +1.13902371   +0.00000000   +2.11373527
 C   +2.44361332   -0.20847300   +1.37977773
 C   +2.71107515   -1.66431589   +1.15385247
 C   +3.69174746   -2.32554250   +1.75198916
 C   +4.01013009   -3.77772087   +1.58149559
 C   +3.12177489   -4.52165076   +0.63637391
 O   +1.08491619   +0.12765971   +3.30058230
 H   +3.59043912   -5.81545679   +0.63186868
 H   +0.40543460   +0.92918640   -0.39439117
 H   +3.20647441   -4.25233952   -0.41066639
 H   +2.09459866   -4.65877710   +0.95526402
 H   +3.97523873   -4.24868349   +2.56556514
 H   +5.04840447   -3.86414246   +1.25570272
 H   +4.33487457   -1.78743910   +2.43885369
 H   +2.05368507   -2.19073492   +0.47341173
 H   +2.44948266   +0.33248374   +0.43472299
 H   +3.21441639   +0.21333325   +2.01549332
 H   +0.54868425   -0.84320470   -0.41089359
 H   -1.03930527   -0.08167873   -0.29338410
 H   +3.92851080   -6.64979889   +0.65700032
22
 * E = +10.503 kcal/mol ; (52) 358_175_358_117_178
 C   +0.00000000   +0.00000000   +0.00000000
 O   +0.00000000   +0.00000000   +1.40794260
 C   +1.13268866   +0.00000000   +2.12728297
 C   +2.41763983   -0.04306903   +1.34800707
 C   +3.71306302   +0.06213777   +2.08503861
 C   +3.93661837   +0.22885424   +3.38197549
 C   +5.31006626   +0.33472666   +3.96286632
 C   +5.52967427   +1.68077799   +4.59075820
 O   +1.04349402   +0.01778618   +3.31895065
 H   +6.79485274   +1.64966975   +5.12236085
 H   +0.42019050   +0.92006269   -0.40053387
 H   +4.92233530   +1.89963298   +5.46216299
 H   +5.58412606   +2.51489803   +3.90027421
 H   +6.05617333   +0.15734704   +3.18916193
 H   +5.44239228   -0.44008887   +4.71929702
 H   +3.10649250   +0.30282339   +4.06744551
 H   +4.57312801   -0.01121649   +1.42808532
 H   +2.41191096   -0.97320418   +0.77384895
 H   +2.37896985   +0.74105706   +0.58933340
 H   +0.53602311   -0.85462607   -0.40618170
 H   -1.04043992   -0.06668330   -0.29273802
 H   +7.63081077   +1.58332940   +5.46060469
22
 * E = +10.834 kcal/mol ; (53) 358_174_356_354_064
 C   +0.00000000   +0.00000000   +0.00000000
 O   +0.00000000   +0.00000000   +1.40782091
 C   +1.13164940   +0.00000000   +2.12914790
 C   +2.41844431   -0.04335040   +1.35313942
 C   +3.71364714   +0.08854969   +2.08745392
 C   +3.92252391   +0.32235898   +3.37574755
 C   +5.26869106   +0.46336458   +4.00907633
 C   +6.45150486   +0.19238957   +3.13792106
 O   +1.03829744   +0.01442483   +3.32075968
 H   +6.45146440   +1.14720947   +2.14605215
 H   +0.40914062   +0.92524648   -0.40010448
 H   +6.42554895   -0.73301703   +2.57235126
 H   +7.41517198   +0.37111478   +3.59982418
 H   +5.30505758   -0.20407121   +4.87666717
 H   +5.34827114   +1.46700149   +4.43302608
 H   +3.07791301   +0.42464265   +4.03882320
 H   +4.56851994   -0.00732491   +1.43007696
 H   +2.42041280   -0.98432177   +0.79663613
 H   +2.37476739   +0.72581709   +0.57982861
 H   +0.54693536   -0.84763294   -0.40631383
 H   -1.03954491   -0.07939954   -0.29286599
 H   +6.44104293   +1.79392819   +1.51314578
22
 * E = +10.899 kcal/mol ; (54) 002_185_004_240_068
 C   +0.00000000   +0.00000000   +0.00000000
 O   +0.00000000   +0.00000000   +1.40794659
 C   +1.13274004   +0.00000000   +2.12732893
 C   +2.41792129   +0.04884753   +1.34865224
 C   +3.71217177   -0.07123835   +2.08512975
 C   +3.93238539   -0.29441080   +3.37284605
 C   +5.30019309   -0.41494313   +3.95596352
 C   +5.53985227   -1.75019897   +4.59744925
 O   +1.04301682   -0.01919754   +3.31898876
 H   +5.55529785   -2.66189040   +3.56743215
 H   +0.54019672   +0.85195101   -0.40627067
 H   +4.73713660   -2.12557242   +5.22264246
 H   +6.51965569   -1.89197774   +5.03938202
 H   +5.43220223   +0.36390206   +4.71425338
 H   +6.05572551   -0.22739795   +3.19265394
 H   +3.09943687   -0.40173170   +4.05113562
 H   +4.57336399   +0.03032135   +1.43373092
 H   +2.37894352   -0.72515348   +0.57990861
 H   +2.41440459   +0.98689978   +0.78745618
 H   +0.41588709   -0.92213398   -0.40022707
 H   -1.04012907   +0.07154855   -0.29276003
 H   +5.57861815   -3.22328564   +2.85957514
22
 * E = +11.073 kcal/mol ; (55) 002_185_004_240_298
 C   +0.00000000   +0.00000000   +0.00000000
 O   +0.00000000   +0.00000000   +1.40778419
 C   +1.13447240   +0.00000000   +2.12575383
 C   +2.41729154   +0.05678515   +1.34353927
 C   +3.71588012   -0.04444315   +2.07530549
 C   +3.94891372   -0.25327582   +3.36358055
 C   +5.32530804   -0.34397844   +3.93398269
 C   +5.58785090   -1.66203415   +4.60190188
 O   +1.04832778   -0.02521524   +3.31708647
 H   +4.69110212   -1.74457767   +5.63790672
 H   +0.53403403   +0.85568321   -0.40664315
 H   +6.53452400   -1.74653402   +5.12343734
 H   +5.34447756   -2.54220019   +4.01748618
 H   +5.46760435   +0.45555407   +4.66356505
 H   +6.06434802   -0.17446168   +3.14616636
 H   +3.12618201   -0.36834547   +4.05247939
 H   +4.57200738   +0.06750940   +1.41827856
 H   +2.38290681   -0.72137669   +0.57868273
 H   +2.40343518   +0.99147705   +0.77707865
 H   +0.42190567   -0.91923764   -0.40068733
 H   -1.04060940   +0.06445025   -0.29282043
 H   +4.09538753   -1.75145465   +6.32113382
