22
 * E =  +0.000 kcal/mol ; (1) 182_195_134_000
 C   +0.00000000   +0.00000000   +0.00000000
 O   +0.00000000   +0.00000000   +1.41713011
 C   +1.20174937   +0.00000000   +1.98682330
 C   +1.09728780   -0.05200270   +3.48207269
 C   +2.37951150   +0.30722568   +4.15281977
 C   +2.48963285   +1.12533460   +5.17582117
 C   +3.63458603   +1.59724907   +5.97935648
 C   +4.96757312   +1.01991671   +5.53423112
 O   +2.22509878   +0.00980970   +1.35899612
 H   +5.77430101   +1.40351052   +6.15336205
 H   +0.50937667   +0.88082560   -0.37769572
 H   +5.18034480   +1.28226935   +4.50074614
 H   +4.96906517   -0.06471529   +5.61272468
 H   +3.45337458   +1.35222601   +7.02695872
 H   +3.66746853   +2.68670333   +5.93359394
 H   +1.26499047   +1.71111026   +5.60732682
 H   +3.27241958   -0.15354628   +3.73943777
 H   +0.27612807   +0.58000850   +3.80752274
 H   +0.80953102   -1.07698213   +3.72795597
 H   +0.50131707   -0.88526672   -0.37860168
 H   -1.04092373   +0.00483152   -0.29576842
 H   +0.51536535   +2.07989846   +5.86998503
22
 * E =  +0.122 kcal/mol ; (2) 182_195_134_118
 C   +0.00000000   +0.00000000   +0.00000000
 O   +0.00000000   +0.00000000   +1.41717550
 C   +1.20151222   +0.00000000   +1.98718616
 C   +1.09581867   -0.05064471   +3.48247940
 C   +2.37794005   +0.30467976   +4.15490411
 C   +2.49201781   +1.12560156   +5.17486551
 C   +3.64050445   +1.59554324   +5.97190247
 C   +3.84835855   +3.09836530   +5.87258206
 O   +2.22524680   +0.00927450   +1.36013630
 H   +4.68788422   +3.41367487   +6.48694142
 H   +0.50841823   +0.88140899   -0.37763212
 H   +2.96465785   +3.63491758   +6.20983265
 H   +4.04674789   +3.39369896   +4.84569897
 H   +4.53588919   +1.06722489   +5.63488973
 H   +3.49065177   +1.31697447   +7.01576419
 H   +1.27181613   +1.71813922   +5.61186635
 H   +3.27200698   -0.16204002   +3.74940479
 H   +0.27699893   +0.58488942   +3.80699363
 H   +0.80412790   -1.07424084   +3.72939794
 H   +0.50232894   -0.88471243   -0.37853799
 H   -1.04092148   +0.00370768   -0.29575518
 H   +0.52161297   +2.08008469   +5.88696012
22
 * E =  +0.128 kcal/mol ; (3) 182_195_134_242
 C   +0.00000000   +0.00000000   +0.00000000
 O   +0.00000000   +0.00000000   +1.41717538
 C   +1.20158016   +0.00000000   +1.98698061
 C   +1.09646111   -0.05178989   +3.48227089
 C   +2.37565168   +0.31414637   +4.15479173
 C   +2.48211536   +1.13260419   +5.17757105
 C   +3.62422204   +1.59950006   +5.98537814
 C   +3.51614460   +1.19545840   +7.44713831
 O   +2.22521730   +0.00936025   +1.35977836
 H   +4.36074595   +1.57519686   +8.01642874
 H   +0.50772726   +0.88180190   -0.37762717
 H   +3.49502425   +0.11354868   +7.54940192
 H   +2.60604247   +1.59047590   +7.89239933
 H   +3.69263091   +2.68550762   +5.91255629
 H   +4.54350431   +1.20074510   +5.54933723
 H   +1.25801781   +1.71840298   +5.61089283
 H   +3.27427574   -0.13960642   +3.74469282
 H   +0.27202616   +0.57603920   +3.80744921
 H   +0.81439374   -1.07828121   +3.72844905
 H   +0.50304771   -0.88431079   -0.37851254
 H   -1.04092246   +0.00291809   -0.29575739
 H   +0.50941667   +2.09663329   +5.86807467
22
 * E =  +0.700 kcal/mol ; (4) 181_314_237_000
 C   +0.00000000   +0.00000000   +0.00000000
 O   +0.00000000   +0.00000000   +1.41683425
 C   +1.20365007   +0.00000000   +1.98620265
 C   +1.11652706   -0.02444961   +3.48456013
 C   +0.11755392   +0.93958173   +4.04090928
 C   +0.39488643   +1.89021494   +4.90627030
 C   -0.42095709   +2.92142162   +5.57727601
 C   -1.88935724   +2.88596156   +5.18940933
 O   +2.22428197   -0.00772574   +1.35537792
 H   -2.43956830   +3.66583467   +5.70925746
 H   +0.51418304   +0.87817161   -0.37739039
 H   -2.33828877   +1.92918036   +5.44578153
 H   -2.01455512   +3.04074525   +4.12032832
 H   +0.00038612   +3.90163688   +5.34976800
 H   -0.31812811   +2.80125783   +6.65671676
 H   +1.76242555   +1.96739717   +5.29765293
 H   -0.90340742   +0.82428565   +3.68745709
 H   +0.83613698   -1.04303465   +3.76055095
 H   +2.11143735   +0.16234205   +3.87181590
 H   +0.49721583   -0.88761637   -0.37841800
 H   -1.04074074   +0.00996035   -0.29662188
 H   +2.59988741   +2.02290182   +5.54394765
22
 * E =  +0.788 kcal/mol ; (5) 181_315_237_118
 C   +0.00000000   +0.00000000   +0.00000000
 O   +0.00000000   +0.00000000   +1.41692416
 C   +1.20328486   +0.00000000   +1.98643375
 C   +1.11645182   -0.02714992   +3.48493754
 C   +0.09955129   +0.91514916   +4.04461240
 C   +0.35497769   +1.86766455   +4.91418541
 C   -0.48803452   +2.87107731   +5.59062271
 C   -0.50149112   +2.70541006   +7.10197577
 O   +2.22437430   -0.00705019   +1.35641143
 H   -1.11125720   +3.47432089   +7.56943449
 H   +0.51377880   +0.87841889   -0.37728360
 H   +0.50411743   +2.78042805   +7.50882017
 H   -0.90288795   +1.73487406   +7.38182967
 H   -1.50356119   +2.79853252   +5.19309498
 H   -0.12676099   +3.86864482   +5.33797022
 H   +1.71926392   +1.97776406   +5.31072329
 H   -0.92001663   +0.78637477   +3.69002891
 H   +0.85669809   -1.05178502   +3.75901190
 H   +2.10763058   +0.17785717   +3.87270029
 H   +0.49749340   -0.88747870   -0.37833184
 H   -1.04075800   +0.00968064   -0.29649142
 H   +2.55750119   +2.06074945   +5.55169468
22
 * E =  +0.793 kcal/mol ; (6) 181_315_237_242
 C   +0.00000000   +0.00000000   +0.00000000
 O   +0.00000000   +0.00000000   +1.41689680
 C   +1.20336812   +0.00000000   +1.98643584
 C   +1.11610054   -0.02593356   +3.48489360
 C   +0.11158487   +0.93086232   +4.04265632
 C   +0.37959819   +1.88181974   +4.91012932
 C   -0.44721629   +2.90707301   +5.57374238
 C   -0.01014502   +4.32326830   +5.23442397
 O   +2.22441201   -0.00681840   +1.35634581
 H   -0.62396251   +5.05251938   +5.75691716
 H   +0.51309885   +0.87880239   -0.37735516
 H   -0.09377601   +4.50892863   +4.16683337
 H   +1.02567396   +4.48809964   +5.52116596
 H   -0.39911054   +2.76097570   +6.65354259
 H   -1.49049162   +2.75388871   +5.28603132
 H   +1.74361869   +1.96899611   +5.31343780
 H   -0.91037350   +0.81225980   +3.69135249
 H   +0.84233057   -1.04655144   +3.76009497
 H   +2.10967474   +0.16687665   +3.87268792
 H   +0.49822088   -0.88707060   -0.37834042
 H   -1.04075791   +0.00878087   -0.29653026
 H   +2.57743359   +2.02151797   +5.57723199
22
 * E =  +8.072 kcal/mol ; (7) 004_188_134_000
 C   +0.00000000   +0.00000000   +0.00000000
 O   +0.00000000   +0.00000000   +1.40937421
 C   +1.14189736   +0.00000000   +2.10655938
 C   +2.43108719   +0.08198629   +1.32920678
 C   +3.61874168   -0.10926375   +2.21008042
 C   +4.63708592   -0.89208546   +1.93150568
 C   +5.89033541   -1.21944955   +2.63897356
 C   +6.04100323   -0.49911427   +3.96831224
 O   +1.09396723   -0.03139274   +3.30066401
 H   +6.97402076   -0.78068996   +4.44928452
 H   +0.56010534   +0.83948857   -0.40476471
 H   +5.22451963   -0.74871539   +4.64136925
 H   +6.04548170   +0.57948646   +3.82994010
 H   +6.73365314   -0.98332896   +1.98834539
 H   +5.93085289   -2.29843022   +2.79424466
 H   +4.51588165   -1.60898338   +0.70678693
 H   +3.60651794   +0.44287202   +3.14489035
 H   +2.43526199   -0.63954421   +0.51565074
 H   +2.45988701   +1.06919123   +0.86000970
 H   +0.39668307   -0.93156972   -0.39719508
 H   -1.03793150   +0.09423558   -0.29365368
 H   +4.43361356   -2.05583898   -0.04270967
22
 * E =  +8.175 kcal/mol ; (8) 357_273_124_001
 C   +0.00000000   +0.00000000   +0.00000000
 O   +0.00000000   +0.00000000   +1.41160311
 C   +1.13931286   +0.00000000   +2.10702386
 C   +2.44798493   -0.07985695   +1.35670552
 C   +2.81716618   -1.51399219   +1.11738002
 C   +3.07039196   -2.04920602   -0.05710394
 C   +3.46926521   -3.40026344   -0.49721267
 C   +3.60866022   -4.39326071   +0.64440146
 O   +1.09434637   +0.02007255   +3.30282602
 H   +3.90230352   -5.36822236   +0.26500273
 H   +0.37471662   +0.94223833   -0.39350271
 H   +2.66915941   -4.50903586   +1.17939173
 H   +4.36375013   -4.06740734   +1.35566624
 H   +4.41069887   -3.32488297   -1.04308045
 H   +2.73823721   -3.76402282   -1.22066989
 H   +2.93313328   -1.14838528   -1.14711307
 H   +2.88232226   -2.13419720   +2.00813634
 H   +2.42587530   +0.46568877   +0.41814195
 H   +3.18477075   +0.38276672   +2.00743730
 H   +0.58186806   -0.82526774   -0.39986220
 H   -1.03651084   -0.11523388   -0.29176092
 H   +2.83329076   -0.58569316   -1.81426283
22
 * E =  +8.206 kcal/mol ; (9) 003_187_134_117
 C   +0.00000000   +0.00000000   +0.00000000
 O   +0.00000000   +0.00000000   +1.40931192
 C   +1.14178466   +0.00000000   +2.10663886
 C   +2.43070790   +0.08020235   +1.32865969
 C   +3.61951096   -0.09918376   +2.21006849
 C   +4.64024941   -0.88149884   +1.94021186
 C   +5.88957952   -1.20006505   +2.65570578
 C   +5.98584540   -2.66716408   +3.04303618
 O   +1.09412205   -0.03062170   +3.30068945
 H   +6.92449121   -2.87077495   +3.55195154
 H   +0.55735375   +0.84131282   -0.40478543
 H   +5.93524109   -3.30481686   +2.16359619
 H   +5.17062442   -2.94569208   +3.70535836
 H   +5.94785111   -0.56977232   +3.54651568
 H   +6.74090413   -0.93131915   +2.02911108
 H   +4.52888416   -1.61103281   +0.72107888
 H   +3.61159581   +0.46302097   +3.13951301
 H   +2.43723272   -0.64877961   +0.52171298
 H   +2.45652336   +1.06306546   +0.85033775
 H   +0.39974478   -0.93022994   -0.39729872
 H   -1.03820759   +0.09085776   -0.29369607
 H   +4.45834193   -2.05536513   -0.03270025
22
 * E =  +8.307 kcal/mol ; (10) 357_272_124_243
 C   +0.00000000   +0.00000000   +0.00000000
 O   +0.00000000   +0.00000000   +1.41168138
 C   +1.13861196   +0.00000000   +2.10784223
 C   +2.44822722   -0.06769797   +1.35771751
 C   +2.82913465   -1.49720052   +1.11174310
 C   +3.08706796   -2.02731541   -0.06372509
 C   +3.50415208   -3.37145376   -0.50355927
 C   +4.86774924   -3.37192544   -1.17638244
 O   +1.09320457   +0.01284857   +3.30365621
 H   +5.13439527   -4.37322534   -1.50407777
 H   +0.37096816   +0.94370752   -0.39355644
 H   +5.63669995   -3.02054896   -0.49357430
 H   +4.87142936   -2.72124133   -2.04755916
 H   +2.75838780   -3.77109122   -1.19172504
 H   +3.51064663   -4.03340808   +0.36579525
 H   +2.94395837   -1.12918129   -1.15603690
 H   +2.89820844   -2.12423620   +1.99808676
 H   +2.42191732   +0.48173157   +0.42157554
 H   +3.18136599   +0.39748276   +2.01078466
 H   +0.58484366   -0.82307796   -0.40012013
 H   -1.03607937   -0.11924363   -0.29162860
 H   +2.83040105   -0.57069083   -1.82613682
22
 * E =  +8.315 kcal/mol ; (11) 357_272_124_119
 C   +0.00000000   +0.00000000   +0.00000000
 O   +0.00000000   +0.00000000   +1.41169836
 C   +1.13865908   +0.00000000   +2.10798610
 C   +2.44810276   -0.07078529   +1.35789697
 C   +2.82589180   -1.50138003   +1.11341437
 C   +3.07789428   -2.03434214   -0.06200234
 C   +3.47410227   -3.38445761   -0.50262599
 C   +2.45292813   -4.02597336   -1.42851652
 O   +1.09306891   +0.01477634   +3.30376303
 H   +2.78833186   -5.00841192   -1.74998520
 H   +0.37374506   +0.94262267   -0.39354546
 H   +2.29769286   -3.41809893   -2.31683156
 H   +1.49465439   -4.14141016   -0.92871990
 H   +3.62596319   -4.00677469   +0.38264450
 H   +4.43836584   -3.32507540   -1.00847258
 H   +2.93257855   -1.13756130   -1.15525821
 H   +2.90094033   -2.12569267   +2.00118474
 H   +2.42281045   +0.47774558   +0.42122531
 H   +3.18234543   +0.39373865   +2.01016435
 H   +0.58236134   -0.82479860   -0.40019165
 H   -1.03647305   -0.11609457   -0.29156745
 H   +2.83802839   -0.57335425   -1.82362916
22
 * E = +10.418 kcal/mol ; (12) 350_278_241_000
 C   +0.00000000   +0.00000000   +0.00000000
 O   +0.00000000   +0.00000000   +1.40903806
 C   +1.13953232   +0.00000000   +2.11508995
 C   +2.43806508   -0.23366075   +1.38062125
 C   +2.67591973   -1.69992327   +1.16958175
 C   +3.70870478   -2.36440982   +1.63943772
 C   +4.12779061   -3.77687289   +1.56173545
 C   +3.17392891   -4.65751586   +0.77292166
 O   +1.08558077   +0.14429337   +3.29958632
 H   +3.53201332   -5.68328355   +0.75307333
 H   +0.40509331   +0.92951674   -0.39404988
 H   +3.08322336   -4.31404146   -0.25514410
 H   +2.18229812   -4.65679288   +1.21929352
 H   +4.23491872   -4.16059648   +2.57718037
 H   +5.12602059   -3.82148942   +1.12406005
 H   +4.63359279   -1.58323064   +2.38865699
 H   +1.93065490   -2.24439062   +0.59345967
 H   +2.44524953   +0.29087428   +0.42643414
 H   +3.22269262   +0.18020376   +2.00294600
 H   +0.54891352   -0.84263857   -0.41232180
 H   -1.03942047   -0.08152292   -0.29318764
 H   +5.20770006   -1.11096410   +2.84745030
22
 * E = +10.519 kcal/mol ; (13) 350_278_241_242
 C   +0.00000000   +0.00000000   +0.00000000
 O   +0.00000000   +0.00000000   +1.40907844
 C   +1.13913515   +0.00000000   +2.11536949
 C   +2.43773169   -0.23746567   +1.38183501
 C   +2.67290787   -1.70411428   +1.17362813
 C   +3.69907314   -2.37398094   +1.64938496
 C   +4.10324450   -3.78974635   +1.57729671
 C   +4.16707718   -4.44814298   +2.94661765
 O   +1.08546617   +0.14663990   +3.29956514
 H   +4.48623576   -5.48354504   +2.86073459
 H   +0.40981415   +0.92737560   -0.39415486
 H   +3.19496532   -4.42836163   +3.43163106
 H   +4.87190826   -3.93066181   +3.59268811
 H   +5.07863263   -3.85825602   +1.09419590
 H   +3.39894531   -4.32300189   +0.93351550
 H   +4.63041253   -1.60104721   +2.39966089
 H   +1.93155225   -2.25006432   +0.59268063
 H   +2.44676270   +0.28543894   +0.42679562
 H   +3.22302656   +0.17528927   +2.00410200
 H   +0.54431692   -0.84561148   -0.41230024
 H   -1.03984819   -0.07617850   -0.29303458
 H   +5.21582491   -1.13010276   +2.84835254
22
 * E = +10.559 kcal/mol ; (14) 350_278_241_119
 C   +0.00000000   +0.00000000   +0.00000000
 O   +0.00000000   +0.00000000   +1.40903653
 C   +1.13928121   +0.00000000   +2.11516087
 C   +2.43845615   -0.23368036   +1.38122204
 C   +2.67758297   -1.69906084   +1.16859545
 C   +3.70123596   -2.36901631   +1.64971201
 C   +4.11580294   -3.78086612   +1.56316285
 C   +5.46791756   -3.95767544   +0.89072695
 O   +1.08564428   +0.14484649   +3.29953375
 H   +5.75235340   -5.00636560   +0.86785166
 H   +0.40686657   +0.92875334   -0.39399689
 H   +6.24104633   -3.41154650   +1.42574694
 H   +5.44489014   -3.58855357   -0.13135850
 H   +3.34744956   -4.33958120   +1.02263543
 H   +4.15225170   -4.19932754   +2.56952100
 H   +4.62063751   -1.59882796   +2.41761590
 H   +1.94024467   -2.24462319   +0.58221989
 H   +2.44709868   +0.29208239   +0.42776765
 H   +3.22250490   +0.17892199   +2.00518811
 H   +0.54724173   -0.84370405   -0.41225971
 H   -1.03954861   -0.07964464   -0.29318413
 H   +5.18624115   -1.13462520   +2.89751118
22
 * E = +10.975 kcal/mol ; (15) 356_073_107_000
 C   +0.00000000   +0.00000000   +0.00000000
 O   +0.00000000   +0.00000000   +1.40714749
 C   +1.11905792   +0.00000000   +2.14262698
 C   +2.45985157   -0.09610007   +1.44996429
 C   +2.85583253   +1.16751351   +0.74655497
 C   +3.79048876   +1.99125876   +1.17005017
 C   +4.33046096   +3.26294554   +0.65219475
 C   +3.67656433   +3.72969242   -0.63694311
 O   +1.02113557   +0.06119784   +3.33217412
 H   +4.11404872   +4.66784262   -0.96751551
 H   +0.10862658   +1.01147393   -0.38290282
 H   +2.60947358   +3.88805576   -0.49869138
 H   +3.81083625   +2.99881630   -1.43120900
 H   +5.40571703   +3.15119265   +0.50614025
 H   +4.21747623   +4.02515701   +1.42437327
 H   +4.44892222   +1.59107250   +2.36716567
 H   +2.33678703   +1.41031373   -0.17661287
 H   +3.17063175   -0.31750903   +2.23716266
 H   +2.46146233   -0.93344422   +0.75257586
 H   +0.77613636   -0.63590774   -0.41692163
 H   -0.96668599   -0.38676616   -0.29965704
 H   +4.86681036   +1.34895284   +3.09503067
22
 * E = +11.101 kcal/mol ; (16) 004_286_254_119
 C   +0.00000000   +0.00000000   +0.00000000
 O   +0.00000000   +0.00000000   +1.40722197
 C   +1.11921210   +0.00000000   +2.14215297
 C   +2.45986092   +0.10018712   +1.44913947
 C   +2.86295935   -1.16334157   +0.75041960
 C   +3.79438237   -1.98749430   +1.17922441
 C   +4.33832881   -3.25387087   +0.65639193
 C   +5.82253768   -3.16938417   +0.33723546
 O   +1.02244005   -0.06372004   +3.33159852
 H   +6.19466514   -4.12600001   -0.01993546
 H   +0.76827825   +0.64545244   -0.41688071
 H   +6.39357455   -2.89533631   +1.22094905
 H   +6.01331510   -2.42205444   -0.42858801
 H   +3.77428264   -3.53722797   -0.23606947
 H   +4.16909186   -4.04053160   +1.39252123
 H   +4.44668014   -1.59371016   +2.38250339
 H   +2.35148809   -1.41208749   -0.17618731
 H   +2.45806941   +0.93505587   +0.74892297
 H   +3.16946769   +0.32685683   +2.23595061
 H   +0.11995284   -1.00996076   -0.38340036
 H   -0.97121040   +0.37559620   -0.29912376
 H   +4.85341863   -1.35951079   +3.12096346
