22
 * E =  +0.000 kcal/mol ; (1) 177_166_229_239_279
 C   +0.00000000   +0.00000000   +0.00000000
 O   +0.00000000   +0.00000000   +1.38189549
 C   +1.19956971   +0.00000000   +1.98881316
 C   +1.04477127   +0.07730681   +3.47647305
 C   +2.30027747   -0.25259232   +4.20466225
 C   +2.36735492   -1.10796334   +5.21442857
 C   +3.60835770   -1.44965624   +5.96501752
 C   +3.93880431   -2.93173348   +5.89255360
 O   +2.23278912   -0.03485955   +1.38590211
 H   +4.82927217   -3.16352080   +6.47198940
 H   +0.20776685   +1.26446739   -0.40313384
 H   +4.11388747   -3.23947565   +4.86452233
 H   +3.12201512   -3.53496941   +6.28471693
 H   +3.48444093   -1.16391623   +7.01113130
 H   +4.43900285   -0.86173021   +5.57755734
 H   +1.46283244   -1.62061544   +5.52796131
 H   +3.19517414   +0.25260565   +3.86528506
 H   +0.72783114   +1.10169348   +3.68911680
 H   +0.21864798   -0.56131702   +3.77991702
 H   +0.82214481   -0.55132851   -0.43776515
 H   -0.99004840   -0.24524269   -0.35589070
 H   +0.34570917   +2.15551518   -0.62699456
22
 * E =  +0.012 kcal/mol ; (2) 177_167_230_000_279
 C   +0.00000000   +0.00000000   +0.00000000
 O   +0.00000000   +0.00000000   +1.38177196
 C   +1.19995366   +0.00000000   +1.98861726
 C   +1.04500939   +0.07499356   +3.47636465
 C   +2.30652938   -0.23321915   +4.20415862
 C   +2.38132795   -1.09774434   +5.20595537
 C   +3.60840073   -1.43915675   +5.98403543
 C   +4.86706310   -0.71504893   +5.55904978
 O   +2.23273815   -0.03357482   +1.38486531
 H   +5.71177139   -1.02364357   +6.16915936
 H   +0.20426741   +1.26475864   -0.40334551
 H   +4.75767561   +0.36245462   +5.66401162
 H   +5.11146290   -0.92529553   +4.52006511
 H   +3.76486799   -2.51767206   +5.91772489
 H   +3.41042118   -1.24579024   +7.04030490
 H   +1.47852941   -1.61980354   +5.50537753
 H   +3.18742326   +0.29439800   +3.86658664
 H   +0.70932512   +1.09340078   +3.68878823
 H   +0.22982857   -0.57812536   +3.77910341
 H   +0.82380448   -0.54904448   -0.43756518
 H   -0.98933004   -0.24787589   -0.35611574
 H   +0.33974283   +2.15629404   -0.62764298
22
 * E =  +0.029 kcal/mol ; (3) 177_165_229_120_279
 C   +0.00000000   +0.00000000   +0.00000000
 O   +0.00000000   +0.00000000   +1.38190311
 C   +1.19964497   +0.00000000   +1.98871725
 C   +1.04494208   +0.07858367   +3.47635211
 C   +2.29726488   -0.26154473   +4.20552041
 C   +2.35751163   -1.12203136   +5.21139304
 C   +3.59171222   -1.46126221   +5.97411076
 C   +3.46682475   -1.13901438   +7.45458359
 O   +2.23279447   -0.03505593   +1.38575176
 H   +4.36562455   -1.42563500   +7.99533214
 H   +0.20680228   +1.26465224   -0.40299295
 H   +2.62795818   -1.66915832   +7.90184608
 H   +3.30470285   -0.07468301   +7.60797815
 H   +4.43989892   -0.93011037   +5.54505002
 H   +3.80006824   -2.52633326   +5.85900758
 H   +1.44723827   -1.62221506   +5.52831889
 H   +3.19639071   +0.23712854   +3.86769397
 H   +0.73729712   +1.10596687   +3.68826140
 H   +0.21316681   -0.55261667   +3.77965674
 H   +0.82270470   -0.55064123   -0.43759050
 H   -0.98982826   -0.24601183   -0.35596124
 H   +0.34412012   +2.15585743   -0.62666158
22
 * E =  +0.064 kcal/mol ; (4) 179_167_229_240_081
 C   +0.00000000   +0.00000000   +0.00000000
 O   +0.00000000   +0.00000000   +1.38186834
 C   +1.19957917   +0.00000000   +1.98861992
 C   +1.04372245   +0.02313675   +3.47817193
 C   +2.31256579   -0.27941942   +4.19515206
 C   +2.41649775   -1.16779443   +5.17270905
 C   +3.67186130   -1.48588490   +5.90962843
 C   +4.06392652   -2.94883008   +5.77869535
 O   +2.23278768   +0.01382610   +1.38480463
 H   +4.96469277   -3.16554851   +6.34796402
 H   +0.20654966   -1.26420614   -0.40397476
 H   +4.24912687   -3.20829211   +4.73922188
 H   +3.27403826   -3.60071201   +6.14735919
 H   +3.53771556   -1.24691707   +6.96616911
 H   +4.47650721   -0.84889606   +5.54549806
 H   +1.53469745   -1.72947497   +5.46620324
 H   +3.18555397   +0.27427171   +3.87489306
 H   +0.68336534   +1.02479872   +3.72686087
 H   +0.24600941   -0.66067779   +3.75835796
 H   -0.99005600   +0.24540515   -0.35579098
 H   +0.82253813   +0.55040589   -0.43828805
 H   +0.34274933   -2.15476243   -0.62926433
22
 * E =  +0.078 kcal/mol ; (5) 181_191_130_000_279
 C   +0.00000000   +0.00000000   +0.00000000
 O   +0.00000000   +0.00000000   +1.38175294
 C   +1.19994036   +0.00000000   +1.98846897
 C   +1.04402673   -0.02110340   +3.47797453
 C   +2.32009954   +0.25035851   +4.19499162
 C   +2.43715824   +1.14031304   +5.17002213
 C   +3.68087061   +1.44953369   +5.93491852
 C   +4.90427724   +0.65672600   +5.53002015
 O   +2.23274579   -0.01498337   +1.38396711
 H   +5.76402754   +0.94546803   +6.12873440
 H   +0.20714841   +1.26389497   -0.40420680
 H   +5.15436668   +0.82400811   +4.48461344
 H   +4.74681964   -0.41105208   +5.66829811
 H   +3.47789154   +1.29806157   +6.99705806
 H   +3.88545430   +2.51729720   +5.83473187
 H   +1.56011456   +1.71225083   +5.45434739
 H   +3.17529348   -0.32616003   +3.87154840
 H   +0.26253621   +0.68168323   +3.75763802
 H   +0.65847924   -1.01357819   +3.72550653
 H   +0.82221636   -0.55083157   -0.43837155
 H   -0.99016613   -0.24494905   -0.35585073
 H   +0.34373584   +2.15449591   -0.62981670
22
 * E =  +0.099 kcal/mol ; (6) 181_193_130_240_279
 C   +0.00000000   +0.00000000   +0.00000000
 O   +0.00000000   +0.00000000   +1.38187661
 C   +1.19967479   +0.00000000   +1.98855183
 C   +1.04364586   -0.02202069   +3.47811358
 C   +2.31347060   +0.27553264   +4.19548917
 C   +2.42202368   +1.16806711   +5.16876006
 C   +3.67419762   +1.46850124   +5.91823034
 C   +3.53406490   +1.21311880   +7.41031959
 O   +2.23281457   -0.01498260   +1.38472604
 H   +4.44813167   +1.47115538   +7.93974922
 H   +0.20569848   +1.26434285   -0.40388310
 H   +3.31371365   +0.16634749   +7.60622496
 H   +2.72643575   +1.80625724   +7.83540612
 H   +3.94070950   +2.51497663   +5.76059382
 H   +4.49112624   +0.87471086   +5.51120210
 H   +1.54094042   +1.72896382   +5.46585687
 H   +3.18407767   -0.28266949   +3.87652232
 H   +0.24856765   +0.66503854   +3.75783199
 H   +0.67934419   -1.02219092   +3.72695145
 H   +0.82295535   -0.54980240   -0.43824573
 H   -0.98987605   -0.24607908   -0.35583144
 H   +0.34134259   +2.15504098   -0.62906570
22
 * E =  +0.354 kcal/mol ; (7) 181_307_242_120_081
 C   +0.00000000   +0.00000000   +0.00000000
 O   +0.00000000   +0.00000000   +1.38154744
 C   +1.19971378   +0.00000000   +1.98850234
 C   +1.05499364   -0.02849223   +3.47988244
 C   +0.16118402   +1.04956259   +4.00138001
 C   +0.56189993   +2.00329690   +4.83026262
 C   -0.30810797   +3.08156202   +5.37832670
 C   -0.37614444   +3.05678622   +6.89688934
 O   +2.23232349   +0.01301916   +1.38369833
 H   -0.98873756   +3.87174291   +7.27485124
 H   +0.21089883   -1.26359846   -0.40414332
 H   +0.61510248   +3.15657807   +7.33502046
 H   -0.80158511   +2.12093625   +7.25140581
 H   -1.30823706   +2.99084461   +4.95696818
 H   +0.07992238   +4.04944965   +5.05631116
 H   +1.59693830   +2.00990035   +5.15731958
 H   -0.86659017   +1.02830242   +3.66200273
 H   +0.64780049   -1.00793520   +3.73798556
 H   +2.05188738   +0.04385422   +3.90089594
 H   -0.99062656   +0.24250474   -0.35625426
 H   +0.82086428   +0.55329943   -0.43759802
 H   +0.35017691   -2.15380568   -0.62985816
22
 * E =  +0.356 kcal/mol ; (8) 181_308_241_239_081
 C   +0.00000000   +0.00000000   +0.00000000
 O   +0.00000000   +0.00000000   +1.38151412
 C   +1.19943955   +0.00000000   +1.98889034
 C   +1.05492570   -0.03337367   +3.48016360
 C   +0.13575359   +1.02089062   +4.00558557
 C   +0.50948679   +1.97083024   +4.85122267
 C   -0.38310391   +3.03415118   +5.39229740
 C   +0.10956883   +4.43172547   +5.05274923
 O   +2.23229861   +0.01481305   +1.38450500
 H   -0.53827244   +5.19088288   +5.48433464
 H   +0.21009622   -1.26371567   -0.40409979
 H   +0.13788929   +4.58258419   +3.97627773
 H   +1.11471513   +4.59654019   +5.43607089
 H   -0.44207639   +2.93256550   +6.47736035
 H   -1.39289017   +2.88954976   +5.01082205
 H   +1.54359015   +2.00003357   +5.18005429
 H   -0.88891200   +0.98169319   +3.65854721
 H   +0.67158462   -1.02330488   +3.73551904
 H   +2.04992081   +0.06009028   +3.90160622
 H   -0.99046031   +0.24312671   -0.35629552
 H   +0.82127883   +0.55278145   -0.43748475
 H   +0.34888255   -2.15401703   -0.62984627
22
 * E =  +0.378 kcal/mol ; (9) 181_308_241_000_081
 C   +0.00000000   +0.00000000   +0.00000000
 O   +0.00000000   +0.00000000   +1.38142780
 C   +1.19971608   +0.00000000   +1.98874521
 C   +1.05509025   -0.02912034   +3.47998133
 C   +0.14942481   +1.03944401   +4.00153349
 C   +0.54718850   +1.98896088   +4.83716311
 C   -0.30300028   +3.07882315   +5.39995987
 C   -1.74705486   +3.07491739   +4.94862671
 O   +2.23220412   +0.01309677   +1.38356978
 H   -2.29248701   +3.89922167   +5.40015640
 H   +0.20790258   -1.26378672   -0.40443672
 H   -2.24746454   +2.15110723   +5.23172833
 H   -1.82348863   +3.17807322   +3.86815716
 H   +0.15868359   +4.03551946   +5.14793396
 H   -0.25756961   +3.02073882   +6.48925867
 H   +1.58387079   +1.99249191   +5.15582352
 H   -0.87451498   +1.00606040   +3.65605326
 H   +0.65853632   -1.01319988   +3.73752544
 H   +2.05145372   +0.05246910   +3.90072457
 H   -0.99004183   +0.24471730   -0.35643333
 H   +0.82228115   +0.55137456   -0.43742839
 H   +0.34504829   -2.15437912   -0.63078856
22
 * E =  +0.415 kcal/mol ; (10) 179_305_241_240_279
 C   +0.00000000   +0.00000000   +0.00000000
 O   +0.00000000   +0.00000000   +1.38160558
 C   +1.19877540   +0.00000000   +1.99081528
 C   +1.04960383   +0.02892900   +3.48179065
 C   +0.21067701   +1.17121926   +3.95647098
 C   +0.65459194   +2.12980042   +4.75706905
 C   -0.15554207   +3.28261478   +5.24147446
 C   +0.43711200   +4.61988503   +4.82686123
 O   +2.23237481   -0.03604787   +1.38863314
 H   -0.15201414   +5.44659908   +5.21646097
 H   +0.20068771   +1.26516983   -0.40380360
 H   +0.47254970   +4.70945292   +3.74385995
 H   +1.45295928   +4.73106711   +5.20117130
 H   -0.21723682   +3.24354254   +6.33043144
 H   -1.17465622   +3.19259973   +4.86817006
 H   +1.68834068   +2.09806355   +5.08665754
 H   -0.81380116   +1.19245837   +3.60737311
 H   +0.59156287   -0.91750442   +3.77523714
 H   +2.04766562   +0.06763949   +3.90441440
 H   +0.82485771   -0.54716791   -0.43793983
 H   -0.98878707   -0.24986536   -0.35623556
 H   +0.33263786   +2.15628019   -0.63032432
22
 * E =  +0.430 kcal/mol ; (11) 179_306_242_120_279
 C   +0.00000000   +0.00000000   +0.00000000
 O   +0.00000000   +0.00000000   +1.38176483
 C   +1.19915747   +0.00000000   +1.98997918
 C   +1.05128917   +0.02490747   +3.48122234
 C   +0.20622582   +1.16078733   +3.96026001
 C   +0.64768495   +2.12378805   +4.75694427
 C   -0.17287959   +3.26138290   +5.25918267
 C   -0.24758645   +3.29807068   +6.77715645
 O   +2.23227043   -0.03393328   +1.38682922
 H   -0.82261364   +4.15471893   +7.12035574
 H   +0.20478718   +1.26460171   -0.40433322
 H   +0.74561439   +3.36817378   +7.21667488
 H   -0.71787078   +2.39748586   +7.16489989
 H   -1.17447878   +3.20160414   +4.83588903
 H   +0.26145585   +4.19678776   +4.90230904
 H   +1.68060521   +2.09421533   +5.08932411
 H   -0.81937708   +1.17597011   +3.61419211
 H   +0.59914828   -0.92502702   +3.77251546
 H   +2.04961366   +0.06816164   +3.90279806
 H   +0.82312667   -0.54978983   -0.43788900
 H   -0.98958331   -0.24694692   -0.35604725
 H   +0.33958496   +2.15474867   -0.63191379
22
 * E =  +0.439 kcal/mol ; (12) 179_305_242_000_279
 C   +0.00000000   +0.00000000   +0.00000000
 O   +0.00000000   +0.00000000   +1.38151784
 C   +1.19910998   +0.00000000   +1.99053196
 C   +1.05034643   +0.02682189   +3.48148763
 C   +0.21572926   +1.17219294   +3.95774603
 C   +0.67339969   +2.12492999   +4.75814988
 C   -0.10365745   +3.29104953   +5.27143868
 C   -1.54286313   +3.36587198   +4.81092208
 O   +2.23238117   -0.03433302   +1.38756055
 H   -2.03323468   +4.24242353   +5.22573032
 H   +0.19945907   +1.26509670   -0.40426754
 H   -2.10556907   +2.48992416   +5.12736555
 H   -1.60765295   +3.43069029   +3.72677608
 H   +0.42247316   +4.20328050   +4.98350831
 H   -0.06610193   +3.27453713   +6.36248318
 H   +1.70710108   +2.07214866   +5.08200956
 H   -0.80662480   +1.19419858   +3.60675153
 H   +0.58836531   -0.91832956   +3.77292092
 H   +2.04883206   +0.06033525   +3.90363900
 H   +0.82528495   -0.54649636   -0.43795904
 H   -0.98857422   -0.25076424   -0.35626641
 H   +0.33030426   +2.15625819   -0.63173850
22
 * E =  +1.768 kcal/mol ; (13) 180_106_013_121_280
 C   +0.00000000   +0.00000000   +0.00000000
 O   +0.00000000   +0.00000000   +1.38134111
 C   +1.19922668   +0.00000000   +1.98681147
 C   +1.06514230   -0.00932179   +3.47541393
 C   +1.38806488   -1.33913017   +4.09252493
 C   +1.98620687   -2.36453656   +3.50401454
 C   +2.27917323   -3.66401762   +4.17268319
 C   +1.61239252   -4.83839050   +3.47458638
 O   +2.23084347   -0.00995828   +1.37743645
 H   +1.86724715   -5.77822469   +3.95856122
 H   +0.22707299   +1.26095241   -0.40192156
 H   +1.92687462   -4.90485834   +2.43484727
 H   +0.52999572   -4.73380549   +3.48671952
 H   +1.96275179   -3.61950134   +5.21408257
 H   +3.35877130   -3.82312626   +4.18058785
 H   +2.29664395   -2.27848414   +2.46906145
 H   +1.09940495   -1.42869578   +5.13288363
 H   +1.74211860   +0.74880519   +3.86857332
 H   +0.05250491   +0.28251990   +3.73979900
 H   +0.81414211   -0.56180656   -0.43937321
 H   -0.99367453   -0.23051326   -0.35533914
 H   +0.37822136   +2.15000480   -0.62395383
22
 * E =  +1.793 kcal/mol ; (14) 180_253_348_120_080
 C   +0.00000000   +0.00000000   +0.00000000
 O   +0.00000000   +0.00000000   +1.38141057
 C   +1.19957475   +0.00000000   +1.98631447
 C   +1.06623956   +0.00386988   +3.47506448
 C   +1.42038596   +1.32036363   +4.10322175
 C   +2.02948247   +2.34282720   +3.52085043
 C   +2.36547051   +3.62248756   +4.20759142
 C   +3.85923543   +3.90508964   +4.20465426
 O   +2.23070386   +0.01147922   +1.37616704
 H   +4.07827905   +4.85874047   +4.67909456
 H   +0.22677692   -1.26109355   -0.40180273
 H   +4.24852071   +3.94124753   +3.18917828
 H   +4.40217342   +3.12828482   +4.73766346
 H   +1.99085183   +3.59836216   +5.23024448
 H   +1.84866634   +4.44251132   +3.70595038
 H   +2.33788593   +2.26015668   +2.48507982
 H   +1.14057291   +1.40397432   +5.14652840
 H   +0.04739930   -0.26709403   +3.73788806
 H   +1.72528413   -0.77285096   +3.86272765
 H   -0.99359743   +0.23076112   -0.35538911
 H   +0.81443549   +0.56152988   -0.43917988
 H   +0.37772196   -2.15016200   -0.62371238
22
 * E =  +1.837 kcal/mol ; (15) 180_105_013_000_280
 C   +0.00000000   +0.00000000   +0.00000000
 O   +0.00000000   +0.00000000   +1.38124385
 C   +1.19950355   +0.00000000   +1.98657709
 C   +1.06592630   -0.01021508   +3.47505388
 C   +1.37788696   -1.34311282   +4.09297154
 C   +1.97154143   -2.36713190   +3.49697446
 C   +2.28014927   -3.68284380   +4.13192846
 C   +1.86373794   -3.82808329   +5.57905889
 O   +2.23069924   -0.00928663   +1.37627103
 H   +2.12591381   -4.81286981   +5.95639634
 H   +0.22623030   +1.26084876   -0.40225976
 H   +0.78902361   -3.70346497   +5.69649719
 H   +2.35673992   -3.09028977   +6.20897602
 H   +3.35331795   -3.86015716   +4.03907542
 H   +1.81147770   -4.46767145   +3.53501519
 H   +2.28370624   -2.26482054   +2.46498494
 H   +1.08266552   -1.42599104   +5.13042150
 H   +1.74842966   +0.74274983   +3.86844129
 H   +0.05543583   +0.28940171   +3.73903785
 H   +0.81470909   -0.56117970   -0.43919462
 H   -0.99346960   -0.23124578   -0.35548416
 H   +0.37681021   +2.14996640   -0.62498215
22
 * E =  +7.050 kcal/mol ; (16) 359_172_231_000_289
 C   +0.00000000   +0.00000000   +0.00000000
 O   +0.00000000   +0.00000000   +1.37447158
 C   +1.14712808   +0.00000000   +2.09041386
 C   +2.44036085   -0.02031438   +1.32082131
 C   +3.61909550   +0.18501814   +2.20733101
 C   +4.56409990   +1.08195454   +1.96551755
 C   +5.77269648   +1.33224029   +2.80422281
 C   +5.89867148   +0.46035161   +4.03428005
 O   +1.07071836   -0.00987511   +3.28004414
 H   +6.79923831   +0.70846864   +4.58953894
 H   +0.40184773   +1.18965751   -0.44686886
 H   +5.95248737   -0.59333764   +3.76793254
 H   +5.04891097   +0.59298954   +4.70029707
 H   +5.77083581   +2.38384165   +3.09757056
 H   +6.65754417   +1.21449554   +2.17541639
 H   +4.46902097   +1.70822537   +1.08463904
 H   +3.66591871   -0.44320318   +3.08496684
 H   +2.49896348   -0.99324645   +0.82349243
 H   +2.41374113   +0.72582332   +0.52881332
 H   +0.67739343   -0.71018587   -0.46368180
 H   -1.02052073   -0.07292612   -0.34912744
 H   +0.69494339   +2.04277723   -0.72331719
22
 * E =  +7.068 kcal/mol ; (17) 001_188_130_120_071
 C   +0.00000000   +0.00000000   +0.00000000
 O   +0.00000000   +0.00000000   +1.37453853
 C   +1.14679055   +0.00000000   +2.09052312
 C   +2.44017263   +0.02040662   +1.32109904
 C   +3.61855218   -0.18311755   +2.20813506
 C   +4.57272322   -1.07124262   +1.97158903
 C   +5.76337220   -1.29760256   +2.83805730
 C   +5.83044191   -2.72178260   +3.36565423
 O   +1.07079983   +0.00958569   +3.28014855
 H   +6.72128621   -2.87350393   +3.97036926
 H   +0.40085354   -1.19008336   -0.44669650
 H   +5.85737184   -3.44135783   +2.54942245
 H   +4.96167957   -2.94843540   +3.97870432
 H   +5.74715193   -0.59188809   +3.66710421
 H   +6.66836255   -1.08709093   +2.26536604
 H   +4.49268850   -1.70609433   +1.09419037
 H   +3.66597250   +0.44137817   +3.09002320
 H   +2.41500534   -0.72707742   +0.53038440
 H   +2.49906654   +0.99256137   +0.82234680
 H   -1.02041259   +0.07413124   -0.34913409
 H   +0.67831496   +0.70945768   -0.46342464
 H   +0.69325456   -2.04348172   -0.72294242
22
 * E =  +7.109 kcal/mol ; (18) 000_189_129_239_072
 C   +0.00000000   +0.00000000   +0.00000000
 O   +0.00000000   +0.00000000   +1.37453380
 C   +1.14718379   +0.00000000   +2.08990442
 C   +2.44000576   +0.01153798   +1.31924544
 C   +3.61827889   -0.20018347   +2.20461535
 C   +4.56082576   -1.10148750   +1.97123038
 C   +5.76012285   -1.32494861   +2.82623091
 C   +7.06124439   -1.11713025   +2.06798467
 O   +1.07205341   +0.01596133   +3.27948187
 H   +7.92083214   -1.31885414   +2.70254642
 H   +0.39379890   -1.19227059   -0.44664438
 H   +7.14100762   -0.09480607   +1.70577719
 H   +7.12314424   -1.77935109   +1.20634586
 H   +5.73391417   -2.34444236   +3.21452924
 H   +5.71840420   -0.66237163   +3.68918247
 H   +4.47665460   -1.73289720   +1.09176409
 H   +3.67408410   +0.42663351   +3.08434319
 H   +2.40903969   -0.73545711   +0.52832868
 H   +2.50500923   +0.98357136   +0.82103688
 H   -1.01984946   +0.08043481   -0.34936869
 H   +0.68311938   +0.70513945   -0.46296242
 H   +0.68174578   -2.04732908   -0.72301903
22
 * E =  +7.194 kcal/mol ; (19) 000_274_129_001_288
 C   +0.00000000   +0.00000000   +0.00000000
 O   +0.00000000   +0.00000000   +1.37585308
 C   +1.14567558   +0.00000000   +2.08738591
 C   +2.45561224   +0.00555586   +1.34166349
 C   +2.87408127   -1.38998524   +0.99101049
 C   +3.22316976   -1.77677725   -0.22891055
 C   +3.68132111   -3.14129557   -0.62278735
 C   +3.72782173   -4.15874512   +0.49595266
 O   +1.07372919   -0.03720303   +3.27831854
 H   +4.06929745   -5.12074423   +0.12392317
 H   +0.39213080   +1.19496129   -0.44050451
 H   +2.74557727   -4.30484468   +0.94049489
 H   +4.40871202   -3.84798358   +1.28551914
 H   +4.66885691   -3.04926080   -1.07897820
 H   +3.03285426   -3.50265965   -1.42345032
 H   +3.19218070   -1.04422933   -1.02948493
 H   +2.90036526   -2.09120726   +1.81459083
 H   +2.41260699   +0.62952881   +0.45281922
 H   +3.17178253   +0.44414829   +2.03192149
 H   +0.68663497   -0.70600569   -0.45440387
 H   -1.02069009   -0.07753581   -0.34780827
 H   +0.68062097   +2.05296006   -0.70688264
22
 * E =  +7.197 kcal/mol ; (20) 000_086_231_119_072
 C   +0.00000000   +0.00000000   +0.00000000
 O   +0.00000000   +0.00000000   +1.37593320
 C   +1.14517580   +0.00000000   +2.08780251
 C   +2.45563093   -0.00636663   +1.34256075
 C   +2.87423495   +1.38788916   +0.98899602
 C   +3.22316892   +1.78180346   -0.22835513
 C   +3.68327158   +3.15316556   -0.58532622
 C   +5.09148844   +3.15925961   -1.15836313
 O   +1.07333551   +0.03742380   +3.27867512
 H   +5.39351135   +4.16476745   -1.44044796
 H   +0.39323899   -1.19476184   -0.44060144
 H   +5.15695192   +2.53231502   -2.04554652
 H   +5.80764854   +2.78186571   -0.43253041
 H   +3.63344423   +3.79269967   +0.29446403
 H   +2.99889737   +3.57964231   -1.32077220
 H   +3.20236879   +1.05744019   -1.03788321
 H   +2.90080846   +2.09524515   +1.80912365
 H   +3.17175540   -0.44299995   +2.03408249
 H   +2.41355893   -0.63170290   +0.45469787
 H   -1.02075665   +0.07665937   -0.34773932
 H   +0.68585788   +0.70667646   -0.45452868
 H   +0.68230315   -2.05235729   -0.70704616
22
 * E =  +7.198 kcal/mol ; (21) 000_086_231_239_072
 C   +0.00000000   +0.00000000   +0.00000000
 O   +0.00000000   +0.00000000   +1.37598343
 C   +1.14532776   +0.00000000   +2.08765109
 C   +2.45544281   -0.00422091   +1.34191390
 C   +2.87339517   +1.39140718   +0.99310162
 C   +3.22479301   +1.78884726   -0.22233294
 C   +3.66783268   +3.16589875   -0.57858260
 C   +2.78676931   +3.80260360   -1.64132870
 O   +1.07375724   +0.03636131   +3.27857486
 H   +3.15101468   +4.79093514   -1.91019430
 H   +0.39385144   -1.19460968   -0.44024184
 H   +1.76347667   +3.90595215   -1.28786587
 H   +2.76687343   +3.19991779   -2.54749811
 H   +4.69429866   +3.12381266   -0.94646800
 H   +3.68295135   +3.78517407   +0.31682473
 H   +3.19521227   +1.06976133   -1.03627931
 H   +2.90109666   +2.09544652   +1.81603590
 H   +3.17208809   -0.44319990   +2.03144027
 H   +2.41317075   -0.62646670   +0.45190803
 H   -1.02080594   +0.07619740   -0.34772249
 H   +0.68556807   +0.70695596   -0.45455493
 H   +0.68359091   -2.05222860   -0.70609276
22
 * E =  +7.229 kcal/mol ; (22) 000_178_128_000_289
 C   +0.00000000   +0.00000000   +0.00000000
 O   +0.00000000   +0.00000000   +1.37423866
 C   +1.14554584   +0.00000000   +2.09352506
 C   +2.44093502   -0.00061641   +1.32738910
 C   +3.62077890   +0.05471126   +2.23373383
 C   +4.63439325   -0.79592925   +2.16835729
 C   +5.84781457   -0.78672748   +3.03678556
 C   +5.88950483   +0.31000496   +4.07820399
 O   +1.06527713   +0.01126236   +3.28271123
 H   +6.79770393   +0.24151847   +4.67095895
 H   +0.40795208   +1.18843398   -0.44635373
 H   +5.04208646   +0.24113898   +4.75674115
 H   +5.86834150   +1.29498436   +3.61617523
 H   +6.72927571   -0.72169326   +2.39569222
 H   +5.92295031   -1.76014456   +3.52537287
 H   +4.59874740   -1.58586110   +1.42523268
 H   +3.61128619   +0.84161188   +2.97425518
 H   +2.48581038   -0.89042594   +0.69903365
 H   +2.42562659   +0.85234250   +0.64532370
 H   +0.67316184   -0.71285986   -0.46525213
 H   -1.02089603   -0.06763218   -0.34915800
 H   +0.69972058   +2.04147455   -0.72354832
22
 * E =  +7.232 kcal/mol ; (23) 000_178_129_120_289
 C   +0.00000000   +0.00000000   +0.00000000
 O   +0.00000000   +0.00000000   +1.37436780
 C   +1.14584479   +0.00000000   +2.09285428
 C   +2.44060022   -0.00118886   +1.32563332
 C   +3.62142090   +0.05691697   +2.23017058
 C   +4.64364285   -0.78303846   +2.16708263
 C   +5.83967349   -0.74359697   +3.05443458
 C   +6.01043273   -2.02801715   +3.84959879
 O   +1.06705746   +0.01134447   +3.28209464
 H   +6.90374199   -1.98937806   +4.46830799
 H   +0.40649154   +1.18896872   -0.44666590
 H   +6.10172230   -2.88859205   +3.18935493
 H   +5.15498166   -2.19744348   +4.49875166
 H   +5.76098501   +0.10670724   +3.72999574
 H   +6.73144606   -0.57925523   +2.44699453
 H   +4.62197161   -1.58110966   +1.43075760
 H   +3.61482401   +0.84269802   +2.97384601
 H   +2.48640691   -0.89253369   +0.69963558
 H   +2.42519626   +0.85010851   +0.64154702
 H   +0.67384662   -0.71220917   -0.46523015
 H   -1.02084277   -0.06875838   -0.34906125
 H   +0.69748246   +2.04204801   -0.72412470
22
 * E =  +7.279 kcal/mol ; (24) 000_178_128_239_289
 C   +0.00000000   +0.00000000   +0.00000000
 O   +0.00000000   +0.00000000   +1.37432012
 C   +1.14537042   +0.00000000   +2.09352126
 C   +2.44070296   -0.00175402   +1.32721769
 C   +3.62113141   +0.05159910   +2.23263219
 C   +4.63841470   -0.79454027   +2.17208307
 C   +5.84207354   -0.75003397   +3.04861253
 C   +7.13039231   -0.58350385   +2.25900951
 O   +1.06575733   +0.01229253   +3.28266697
 H   +7.99620311   -0.58786353   +2.91673128
 H   +0.40952384   +1.18795474   -0.44650897
 H   +7.12972628   +0.35360078   +1.70720448
 H   +7.25691059   -1.39088194   +1.53999785
 H   +5.89528450   -1.67489013   +3.62535710
 H   +5.73573067   +0.05950359   +3.76885804
 H   +4.61808975   -1.58672616   +1.42941771
 H   +3.61643333   +0.83622339   +2.97752714
 H   +2.48533490   -0.89110571   +0.69837269
 H   +2.42715028   +0.85186070   +0.64599267
 H   +0.67216073   -0.71383103   -0.46524375
 H   -1.02099339   -0.06636425   -0.34907682
 H   +0.70245210   +2.04044855   -0.72388481
22
 * E =  +7.415 kcal/mol ; (25) 004_079_005_240_071
 C   +0.00000000   +0.00000000   +0.00000000
 O   +0.00000000   +0.00000000   +1.37659691
 C   +1.14640224   +0.00000000   +2.08964589
 C   +2.44406449   +0.09565925   +1.33784508
 C   +2.76532756   +1.49246017   +0.89625256
 C   +2.06802071   +2.58152374   +1.18960365
 C   +2.43297200   +3.96292752   +0.76647834
 C   +2.66310648   +4.88586587   +1.95253425
 O   +1.07267038   -0.04728173   +3.27964432
 H   +2.89659660   +5.89490619   +1.62184290
 H   +0.40624674   -1.19272206   -0.43322171
 H   +3.48685895   +4.53062167   +2.56668718
 H   +1.77914331   +4.93894705   +2.58464554
 H   +1.63077498   +4.37153083   +0.14956950
 H   +3.32289877   +3.92880121   +0.13935672
 H   +1.17498465   +2.49354186   +1.80135062
 H   +3.66500082   +1.58704683   +0.30032173
 H   +3.21406403   -0.26307923   +2.01615826
 H   +2.43671522   -0.57472312   +0.47873909
 H   -1.02141522   +0.06516251   -0.34800679
 H   +0.67816593   +0.71410953   -0.45558804
 H   +0.70636277   -2.04954014   -0.68836114
22
 * E =  +7.450 kcal/mol ; (26) 356_281_355_000_289
 C   +0.00000000   +0.00000000   +0.00000000
 O   +0.00000000   +0.00000000   +1.37648459
 C   +1.14717874   +0.00000000   +2.08866469
 C   +2.44396761   -0.09406417   +1.33546717
 C   +2.76796078   -1.49004324   +0.89117661
 C   +2.07093613   -2.57691840   +1.19442067
 C   +2.40215783   -3.97255525   +0.78197698
 C   +3.64834359   -4.12691742   -0.06163607
 O   +1.07393198   +0.04620141   +3.27879747
 H   +3.81298752   -5.17103797   -0.31315484
 H   +0.40291009   +1.19344731   -0.43386129
 H   +4.53043723   -3.77072345   +0.46649800
 H   +3.56899880   -3.57086743   -0.99383515
 H   +1.54288817   -4.38565015   +0.25014751
 H   +2.49234965   -4.57805738   +1.68560098
 H   +1.18091866   -2.47640835   +1.80691481
 H   +3.66513592   -1.57572177   +0.29278625
 H   +2.43401306   +0.57726257   +0.47710715
 H   +3.21402526   +0.26561051   +2.01319928
 H   +0.68041842   -0.71226401   -0.45509912
 H   -1.02119573   -0.06812454   -0.34815540
 H   +0.70122807   +2.05074150   -0.69012465
22
 * E =  +7.451 kcal/mol ; (27) 356_281_355_239_289
 C   +0.00000000   +0.00000000   +0.00000000
 O   +0.00000000   +0.00000000   +1.37655029
 C   +1.14644335   +0.00000000   +2.08945702
 C   +2.44437043   -0.09104463   +1.33740103
 C   +2.77072866   -1.48665390   +0.89579716
 C   +2.08078374   -2.57900072   +1.19410765
 C   +2.44259445   -3.95735244   +0.75907141
 C   +1.34482719   -4.61567953   -0.06084785
 O   +1.07275250   +0.04378158   +3.27959638
 H   +1.61562332   -5.63324837   -0.33129955
 H   +0.40392828   +1.19337573   -0.43370512
 H   +1.15813024   -4.06212510   -0.97834506
 H   +0.41136879   -4.65817258   +0.49683081
 H   +2.63757936   -4.56535988   +1.64379887
 H   +3.37074493   -3.92855988   +0.18989959
 H   +1.18363082   -2.49377546   +1.80014867
 H   +3.67068318   -1.57777167   +0.29976062
 H   +2.43494328   +0.57939251   +0.47841680
 H   +3.21306378   +0.26996122   +2.01602709
 H   +0.67945605   -0.71312589   -0.45510678
 H   -1.02127157   -0.06730796   -0.34804117
 H   +0.70289109   +2.05038595   -0.68958229
22
 * E =  +8.210 kcal/mol ; (28) 003_288_128_000_087
 C   +0.00000000   +0.00000000   +0.00000000
 O   +0.00000000   +0.00000000   +1.37420503
 C   +1.11783739   +0.00000000   +2.12870355
 C   +2.46033468   +0.06906297   +1.44600565
 C   +2.80657633   -1.20514688   +0.74155882
 C   +3.18536239   -1.27381532   -0.52647180
 C   +3.53065274   -2.51544161   -1.27654221
 C   +3.42313400   -3.80034368   -0.48556664
 O   +0.99237374   -0.06088603   +3.31462362
 H   +3.68526960   -4.65388783   -1.10463194
 H   +0.06726043   -1.26052075   -0.43817440
 H   +2.40915237   -3.95300453   -0.12121426
 H   +4.09157061   -3.79518317   +0.37295413
 H   +4.54056280   -2.40796690   -1.67705932
 H   +2.88063537   -2.56942891   -2.15257916
 H   +3.24377117   -0.35179032   -1.09704409
 H   +2.73740279   -2.10595334   +1.33696806
 H   +2.50017402   +0.90903864   +0.75390377
 H   +3.16556086   +0.26766337   +2.24833100
 H   -0.96558300   +0.33906178   -0.34992573
 H   +0.84357166   +0.48976683   -0.47131968
 H   +0.10407813   -2.15209591   -0.72414090
22
 * E =  +8.289 kcal/mol ; (29) 356_074_234_122_273
 C   +0.00000000   +0.00000000   +0.00000000
 O   +0.00000000   +0.00000000   +1.37431662
 C   +1.11723253   +0.00000000   +2.12896432
 C   +2.45964095   -0.08811880   +1.44796763
 C   +2.83810241   +1.19214650   +0.77202790
 C   +3.19394375   +1.29378764   -0.50019948
 C   +3.58141997   +2.55821072   -1.18394877
 C   +4.97967773   +2.49666824   -1.77679909
 O   +0.99299257   +0.07516225   +3.31417829
 H   +5.22304690   +3.41853969   -2.29903992
 H   +0.06497762   +1.26059149   -0.43771459
 H   +5.06828143   +1.67903638   -2.48973416
 H   +5.72491840   +2.34116708   -1.00042817
 H   +3.50626744   +3.38705588   -0.48197931
 H   +2.86300035   +2.76018327   -1.98068797
 H   +3.21291383   +0.39522957   -1.11121667
 H   +2.81661091   +2.08039548   +1.39182952
 H   +3.15851019   -0.31678768   +2.24781822
 H   +2.48444716   -0.91372821   +0.73870589
 H   +0.84293327   -0.49021399   -0.47189317
 H   -0.96540101   -0.33936511   -0.35003845
 H   +0.09545871   +2.15192350   -0.72344707
22
 * E =  +8.338 kcal/mol ; (30) 353_075_229_237_273
 C   +0.00000000   +0.00000000   +0.00000000
 O   +0.00000000   +0.00000000   +1.37422958
 C   +1.11902472   +0.00000000   +2.12561109
 C   +2.45629223   -0.15384047   +1.44653502
 C   +2.89547358   +1.08468936   +0.72982924
 C   +3.33524792   +1.11113757   -0.51998968
 C   +3.81698507   +2.32537860   -1.23588711
 C   +3.05014632   +2.58289671   -2.52264376
 O   +1.00066026   +0.11613492   +3.30816560
 H   +3.43925101   +3.45577417   -3.04085081
 H   +0.07021182   +1.26298161   -0.42358410
 H   +1.99575440   +2.75230504   -2.31874332
 H   +3.12653452   +1.73468441   -3.20067756
 H   +4.87564272   +2.20148088   -1.47071557
 H   +3.74358469   +3.18781252   -0.57534251
 H   +3.35289946   +0.18444321   -1.08748668
 H   +2.87137283   +2.00181014   +1.30598016
 H   +3.14574869   -0.38299809   +2.25474565
 H   +2.45078375   -1.00378887   +0.76592695
 H   +0.84271465   -0.48898610   -0.47321025
 H   -0.96653569   -0.33458714   -0.35132255
 H   +0.10150624   +2.16336589   -0.68116173
22
 * E =  +8.529 kcal/mol ; (31) 006_084_112_120_070
 C   +0.00000000   +0.00000000   +0.00000000
 O   +0.00000000   +0.00000000   +1.37449473
 C   +1.14281781   +0.00000000   +2.09683408
 C   +2.45368815   +0.13239944   +1.36289419
 C   +2.77943593   +1.56806985   +1.08591042
 C   +3.77925400   +2.22032243   +1.66186544
 C   +4.12087069   +3.64963189   +1.42048847
 C   +4.05659281   +4.47949467   +2.69293688
 O   +1.05987650   -0.07595021   +3.28363992
 H   +4.33779020   +5.51174603   +2.49958988
 H   +0.43529592   -1.17987368   -0.43842898
 H   +4.73207524   +4.08750729   +3.45059553
 H   +3.05299372   +4.47306104   +3.11071854
 H   +3.45011441   +4.06327814   +0.66859866
 H   +5.12896730   +3.70969391   +1.00695527
 H   +4.39872225   +1.69288157   +2.37967440
 H   +2.15103170   +2.09706746   +0.37876042
 H   +3.20436072   -0.29296048   +2.01999430
 H   +2.43935531   -0.44955973   +0.44285617
 H   -1.02220185   +0.04697469   -0.34875682
 H   +0.65856725   +0.72373003   -0.46823536
 H   +0.76107972   -2.02553484   -0.70113363
22
 * E =  +8.534 kcal/mol ; (32) 355_073_010_239_262
 C   +0.00000000   +0.00000000   +0.00000000
 O   +0.00000000   +0.00000000   +1.37436825
 C   +1.11319099   +0.00000000   +2.13802850
 C   +2.45075982   -0.10842626   +1.46162998
 C   +2.86946840   +1.13399932   +0.73587023
 C   +2.26550613   +2.31142702   +0.81041341
 C   +2.71074892   +3.54461512   +0.10436808
 C   +3.01601901   +4.68235310   +1.06514209
 O   +0.97951963   +0.07334160   +3.32187232
 H   +3.30532772   +5.58095074   +0.52583891
 H   -0.17170215   +1.25028518   -0.42714161
 H   +3.82631031   +4.41589404   +1.73941542
 H   +2.14659875   +4.92491426   +1.67269840
 H   +1.92256808   +3.85916930   -0.58193624
 H   +3.58589459   +3.32078611   -0.50431880
 H   +1.38050722   +2.41784424   +1.43102428
 H   +3.75758410   +1.03390701   +0.12389586
 H   +3.16064062   -0.34142949   +2.25113825
 H   +2.45288167   -0.96009852   +0.78000655
 H   +0.92106267   -0.31312634   -0.47532348
 H   -0.88675348   -0.50608755   -0.35798841
 H   -0.31443462   +2.13266309   -0.71582668
22
 * E =  +8.536 kcal/mol ; (33) 005_084_110_239_070
 C   +0.00000000   +0.00000000   +0.00000000
 O   +0.00000000   +0.00000000   +1.37441739
 C   +1.14261800   +0.00000000   +2.09694161
 C   +2.45488149   +0.12260886   +1.36336803
 C   +2.79061531   +1.55505200   +1.08150657
 C   +3.77816706   +2.20959515   +1.67584303
 C   +4.13864842   +3.63169336   +1.42068168
 C   +5.57202942   +3.79012787   +0.93968620
 O   +1.05913731   -0.06989167   +3.28407275
 H   +5.82130770   +4.83819637   +0.79363405
 H   +0.43210318   -1.18093426   -0.43847349
 H   +5.72600617   +3.27111511   -0.00341216
 H   +6.27497225   +3.37995929   +1.66207580
 H   +4.00871814   +4.19825828   +2.34418373
 H   +3.44902307   +4.05875729   +0.69386605
 H   +4.38628106   +1.68305498   +2.40393705
 H   +2.17824557   +2.08083857   +0.35817013
 H   +3.20178014   -0.30463828   +2.02356532
 H   +2.43878557   -0.46287100   +0.44571059
 H   -1.02200798   +0.04993063   -0.34889220
 H   +0.66075512   +0.72195751   -0.46789322
 H   +0.75569037   -2.02755099   -0.70119519
22
 * E =  +8.557 kcal/mol ; (34) 005_287_349_000_097
 C   +0.00000000   +0.00000000   +0.00000000
 O   +0.00000000   +0.00000000   +1.37420180
 C   +1.11431671   +0.00000000   +2.13652076
 C   +2.45019611   +0.11620737   +1.45855011
 C   +2.87311204   -1.12322015   +0.72862729
 C   +2.28373536   -2.30636398   +0.83016940
 C   +2.70009775   -3.55730935   +0.13294571
 C   +3.91095565   -3.43285749   -0.76506029
 O   +0.98198801   -0.07957794   +3.32021212
 H   +4.14207457   -4.38733302   -1.23001857
 H   -0.15451735   -1.25194730   -0.42868649
 H   +4.78899076   -3.11598007   -0.20577104
 H   +3.74157749   -2.71001497   -1.56082767
 H   +1.84725090   -3.92021656   -0.44392566
 H   +2.87868891   -4.32354270   +0.88950590
 H   +1.41275859   -2.40611569   +1.46977866
 H   +3.74681299   -1.00880098   +0.10115112
 H   +2.44656508   +0.96926328   +0.77881299
 H   +3.16013741   +0.35128103   +2.24740678
 H   -0.89322284   +0.49495355   -0.35747936
 H   +0.91679838   +0.32599323   -0.47497838
 H   -0.28485944   -2.13546883   -0.72000061
22
 * E =  +8.666 kcal/mol ; (35) 353_076_007_123_259
 C   +0.00000000   +0.00000000   +0.00000000
 O   +0.00000000   +0.00000000   +1.37461489
 C   +1.11344449   +0.00000000   +2.13615770
 C   +2.44772455   -0.16225175   +1.46354113
 C   +2.94277006   +1.06829290   +0.76660748
 C   +2.38247583   +2.26910539   +0.80765650
 C   +2.94393151   +3.48610809   +0.15595869
 C   +1.98219307   +4.13184662   -0.82731190
 O   +0.98483365   +0.10937048   +3.31780995
 H   +2.40957882   +5.03785944   -1.25013619
 H   -0.23840057   +1.24193934   -0.40991829
 H   +1.04582959   +4.39925035   -0.34205884
 H   +1.74550252   +3.45448621   -1.64436554
 H   +3.87761487   +3.23106862   -0.34384574
 H   +3.19538439   +4.21050201   +0.93255222
 H   +1.45621766   +2.40948774   +1.35735735
 H   +3.86958727   +0.93998823   +0.22054453
 H   +3.13921788   -0.43802548   +2.25572842
 H   +2.41769747   -1.00342569   +0.76974383
 H   +0.93715111   -0.25888545   -0.47580723
 H   -0.85905790   -0.54919522   -0.36224430
 H   -0.43380909   +2.12302518   -0.67140296
22
 * E =  +9.311 kcal/mol ; (36) 015_089_014_119_295
 C   +0.00000000   +0.00000000   +0.00000000
 O   +0.00000000   +0.00000000   +1.37533718
 C   +1.13700609   +0.00000000   +2.10410341
 C   +2.42698118   +0.34391656   +1.41796824
 C   +2.69252119   +1.82281105   +1.44788914
 C   +2.07536278   +2.71159573   +2.21278286
 C   +2.36997962   +4.17202243   +2.21191124
 C   +1.15966398   +5.00195872   +1.81424648
 O   +1.05401609   -0.20582295   +3.27687118
 H   +1.38549047   +6.06502522   +1.84979158
 H   +0.52645951   +1.13818013   -0.50126633
 H   +0.32191863   +4.81750463   +2.48373416
 H   +0.83679055   +4.75701696   +0.80512609
 H   +3.20176415   +4.37729374   +1.53928868
 H   +2.69338591   +4.46981813   +3.21054755
 H   +1.29274295   +2.38326151   +2.88818467
 H   +3.47913141   +2.15521737   +0.78195881
 H   +3.21470936   -0.18621940   +1.94906647
 H   +2.44132761   -0.00174178   +0.38731847
 H   +0.59298156   -0.78902427   -0.45320281
 H   -1.02391089   +0.02882562   -0.34581631
 H   +0.88192934   +1.91195615   -0.87318344
22
 * E =  +9.429 kcal/mol ; (37) 000_187_001_120_072
 C   +0.00000000   +0.00000000   +0.00000000
 O   +0.00000000   +0.00000000   +1.37390856
 C   +1.13822042   +0.00000000   +2.10997763
 C   +2.42388660   +0.00237979   +1.33695325
 C   +3.71030799   -0.15984056   +2.08005878
 C   +3.92553485   -0.32358832   +3.37816416
 C   +5.28529801   -0.47925795   +3.96934642
 C   +5.60035727   +0.60708179   +4.98527805
 O   +1.02468911   +0.01514626   +3.29653311
 H   +6.57951416   +0.45337618   +5.43281473
 H   +0.39582480   -1.19056064   -0.44996479
 H   +4.86513233   +0.61658494   +5.78727010
 H   +5.59163305   +1.58936408   +4.51864054
 H   +6.03532448   -0.48168799   +3.17879027
 H   +5.34722312   -1.45135254   +4.46174144
 H   +3.09162203   -0.33514711   +4.06382288
 H   +4.57206576   -0.14486989   +1.42160218
 H   +2.35550144   -0.76977327   +0.56916299
 H   +2.45452668   +0.94251240   +0.77851485
 H   -1.02105498   +0.07554721   -0.34742510
 H   +0.67693628   +0.70922992   -0.46575951
 H   +0.68213626   -2.04474858   -0.73152306
22
 * E =  +9.431 kcal/mol ; (38) 000_172_358_120_288
 C   +0.00000000   +0.00000000   +0.00000000
 O   +0.00000000   +0.00000000   +1.37394771
 C   +1.13837290   +0.00000000   +2.10972841
 C   +2.42406554   -0.00971788   +1.33665600
 C   +3.70992717   +0.16196887   +2.07871168
 C   +3.92148502   +0.37119633   +3.37081084
 C   +5.27931233   +0.54744489   +3.96061087
 C   +5.43733637   +1.89244832   +4.65169120
 O   +1.02530691   -0.01204848   +3.29635374
 H   +6.42006684   +1.98579719   +5.10794120
 H   +0.39757602   +1.18993800   -0.45003500
 H   +4.69308239   +2.01849597   +5.43534646
 H   +5.31334093   +2.70934055   +3.94455036
 H   +6.03756342   +0.43314694   +3.18634431
 H   +5.45388171   -0.24617808   +4.68922146
 H   +3.08420234   +0.42652113   +4.05023980
 H   +4.57423040   +0.10930243   +1.42557785
 H   +2.45527804   -0.95700504   +0.79047916
 H   +2.35651301   +0.75286986   +0.55935971
 H   +0.67574484   -0.71038482   -0.46576773
 H   -1.02120436   -0.07404649   -0.34732513
 H   +0.68535227   +2.04354958   -0.73172750
22
 * E =  +9.549 kcal/mol ; (39) 359_188_001_000_072
 C   +0.00000000   +0.00000000   +0.00000000
 O   +0.00000000   +0.00000000   +1.37368851
 C   +1.13609559   +0.00000000   +2.11290006
 C   +2.42465077   -0.01419847   +1.34504546
 C   +3.70629348   -0.20825307   +2.09064304
 C   +3.90050520   -0.39424154   +3.38935203
 C   +5.23432139   -0.59444319   +4.03109141
 C   +6.43130430   -0.57793092   +3.10620145
 O   +1.01732390   +0.02930359   +3.29882381
 H   +7.34999793   -0.73173468   +3.66605678
 H   +0.38660762   -1.19309242   -0.45030511
 H   +6.51740056   +0.37364471   +2.58495914
 H   +6.36516139   -1.36447578   +2.35684368
 H   +5.20610982   -1.53947691   +4.57710472
 H   +5.35522652   +0.17011708   +4.80102396
 H   +3.05087867   -0.40264333   +4.05445330
 H   +4.56594662   -0.19503834   +1.43239825
 H   +2.34523385   -0.77658814   +0.56880938
 H   +2.47326202   +0.93153173   +0.79710799
 H   -1.02039224   +0.08360062   -0.34756752
 H   +0.68279095   +0.70394498   -0.46540413
 H   +0.66664448   -2.04939341   -0.73286596
