22
 * E =  +0.000 kcal/mol ; (1) 177_162_213_000
 C   +0.00000000   +0.00000000   +0.00000000
 O   +0.00000000   +0.00000000   +1.41687769
 C   +1.20270483   +0.00000000   +1.98536619
 C   +1.10508147   +0.07135875   +3.46693812
 C   +2.31217170   -0.33904018   +4.19203211
 C   +2.28434358   -0.93474728   +5.38161410
 C   +3.47171113   -1.35789337   +6.17798234
 C   +4.81487254   -1.06701433   +5.54518670
 O   +2.22815189   -0.01267143   +1.35818828
 H   +5.62250430   -1.41045598   +6.18596980
 H   +0.50812238   +0.88159142   -0.37799013
 H   +4.95175174   -0.00034728   +5.38062576
 H   +4.91581087   -1.56744526   +4.58457607
 H   +3.38317954   -2.42718768   +6.38119110
 H   +3.41348658   -0.87927217   +7.15798556
 H   +1.31975364   -1.14528068   +5.83078676
 H   +3.25067383   -0.11845906   +3.70340632
 H   +0.91630341   +1.26061317   +3.65288776
 H   +0.18068910   -0.36183461   +3.83408267
 H   +0.50262532   -0.88466904   -0.37794948
 H   -1.04093221   +0.00311502   -0.29571301
 H   +0.68870616   +2.31426759   +3.82960211
22
 * E =  +0.007 kcal/mol ; (2) 177_162_212_239
 C   +0.00000000   +0.00000000   +0.00000000
 O   +0.00000000   +0.00000000   +1.41699887
 C   +1.20283739   +0.00000000   +1.98484700
 C   +1.10593998   +0.06956282   +3.46664647
 C   +2.31563520   -0.33464346   +4.19008299
 C   +2.30325616   -0.92644011   +5.38157960
 C   +3.51564066   -1.33394573   +6.14320047
 C   +3.54295303   -2.82558756   +6.43698642
 O   +2.22810938   -0.01140847   +1.35748889
 H   +4.41979708   -3.09267999   +7.02178866
 H   +0.50528921   +0.88327999   -0.37783107
 H   +3.56227428   -3.40198571   +5.51526436
 H   +2.66306278   -3.13030377   +7.00050111
 H   +3.54324040   -0.78640490   +7.08732804
 H   +4.40663344   -1.04414842   +5.58858633
 H   +1.34773750   -1.15139294   +5.84521762
 H   +3.25551180   -0.11217786   +3.70209891
 H   +0.91050626   +1.25764288   +3.65463921
 H   +0.18466009   -0.36923670   +3.83484297
 H   +0.50567428   -0.88300091   -0.37773179
 H   -1.04092128   -0.00021763   -0.29569850
 H   +0.67577119   +2.30907034   +3.83139100
22
 * E =  +0.019 kcal/mol ; (3) 177_162_212_120
 C   +0.00000000   +0.00000000   +0.00000000
 O   +0.00000000   +0.00000000   +1.41699917
 C   +1.20279429   +0.00000000   +1.98492318
 C   +1.10585690   +0.07097428   +3.46668151
 C   +2.31384867   -0.33757977   +4.19075848
 C   +2.29870521   -0.93021505   +5.38177973
 C   +3.50950689   -1.32771792   +6.15121719
 C   +3.58296637   -0.64482077   +7.50822575
 O   +2.22815159   -0.01204007   +1.35774891
 H   +4.45644278   -0.97557022   +8.06491771
 H   +0.50505187   +0.88340781   -0.37785212
 H   +2.70289906   -0.86886965   +8.10808106
 H   +3.64142794   +0.43518495   +7.39670834
 H   +4.40053805   -1.10059623   +5.56825953
 H   +3.49914816   -2.40907663   +6.29926986
 H   +1.34229566   -1.14150253   +5.84992410
 H   +3.25464797   -0.12141638   +3.70171244
 H   +0.91623033   +1.25989563   +3.65348942
 H   +0.18258479   -0.36344395   +3.83498339
 H   +0.50582727   -0.88288801   -0.37777373
 H   -1.04092988   -0.00044357   -0.29567755
 H   +0.68747874   +2.31317370   +3.83010505
22
 * E =  +0.670 kcal/mol ; (4) 182_327_219_239
 C   +0.00000000   +0.00000000   +0.00000000
 O   +0.00000000   +0.00000000   +1.41688778
 C   +1.20357514   +0.00000000   +1.98463262
 C   +1.13144812   -0.05658893   +3.46872966
 C   +0.00066257   +0.61021121   +4.12692060
 C   +0.11052905   +1.29005661   +5.26571488
 C   -1.01510055   +1.96357770   +5.96945918
 C   -0.78314197   +3.45651736   +6.14099957
 O   +2.22687827   -0.00057363   +1.35447831
 H   -1.60236228   +3.91908312   +6.68602216
 H   +0.50528321   +0.88324104   -0.37756403
 H   -0.69730451   +3.94956172   +5.17571693
 H   +0.13402898   +3.64943572   +6.69410844
 H   -1.14067359   +1.50935877   +6.95422118
 H   -1.94155658   +1.78743110   +5.42500753
 H   +1.08925326   +1.38438459   +5.72539259
 H   -0.96496037   +0.51203232   +3.64913196
 H   +1.04145989   -1.25716779   +3.67711051
 H   +2.10100703   +0.18635686   +3.88805300
 H   +0.50596566   -0.88289342   -0.37767375
 H   -1.04090663   -0.00021112   -0.29597736
 H   +1.01625645   -2.32243883   +3.87926572
22
 * E =  +0.678 kcal/mol ; (5) 182_326_219_120
 C   +0.00000000   +0.00000000   +0.00000000
 O   +0.00000000   +0.00000000   +1.41686977
 C   +1.20381243   +0.00000000   +1.98414929
 C   +1.13292365   -0.05518218   +3.46839550
 C   +0.00870945   +0.62116466   +4.12822820
 C   +0.12806153   +1.30753714   +5.26211528
 C   -0.99298512   +1.97824213   +5.97583731
 C   -1.17943989   +1.44712039   +7.38876179
 O   +2.22689795   -0.00156595   +1.35362829
 H   -1.98047470   +1.97421652   +7.90131437
 H   +0.50573628   +0.88296837   -0.37757754
 H   -0.27191737   +1.57044950   +7.97657767
 H   -1.42443971   +0.38785169   +7.37641325
 H   -1.91229147   +1.85622823   +5.40513013
 H   -0.79420388   +3.05037216   +6.02414135
 H   +1.10771278   +1.38996114   +5.72204306
 H   -0.95937202   +0.52824370   +3.65447208
 H   +1.03285144   -1.25486302   +3.67782731
 H   +2.10499678   +0.18044753   +3.88598183
 H   +0.50533882   -0.88322734   -0.37772102
 H   -1.04091767   +0.00044884   -0.29594653
 H   +0.99767480   -2.31926634   +3.88146078
22
 * E =  +0.679 kcal/mol ; (6) 182_327_219_000
 C   +0.00000000   +0.00000000   +0.00000000
 O   +0.00000000   +0.00000000   +1.41679957
 C   +1.20409531   +0.00000000   +1.98389271
 C   +1.13453404   -0.05908439   +3.46793596
 C   +0.00305406   +0.60278289   +4.13076686
 C   +0.12575364   +1.28445369   +5.26745779
 C   -0.97712394   +1.95956335   +6.00968696
 C   -2.35019931   +1.83855609   +5.38591475
 O   +2.22675982   +0.00089786   +1.35249821
 H   -3.09174731   +2.35612095   +5.98837284
 H   +0.50732195   -0.88205620   -0.37780939
 H   -2.65661204   +0.79784127   +5.30343496
 H   -2.37073457   +2.27247730   +4.38840926
 H   -0.71598121   +3.01342298   +6.12586197
 H   -0.99730039   +1.56075306   +7.02617583
 H   +1.11158535   +1.37218727   +5.71070721
 H   -0.96157509   +0.49655174   +3.65587623
 H   +1.04849149   -1.26037031   +3.67337101
 H   +2.10470161   +0.18537888   +3.88509473
 H   -1.04093161   -0.00186300   -0.29597675
 H   +0.50375407   +0.88405274   -0.37773180
 H   +1.02454555   -2.32626133   +3.87426340
22
 * E =  +1.789 kcal/mol ; (7) 177_154_018_121
 C   +0.00000000   +0.00000000   +0.00000000
 O   +0.00000000   +0.00000000   +1.41651848
 C   +1.20500878   +0.00000000   +1.98519745
 C   +1.08498449   +0.08239912   +3.46444547
 C   +2.15224661   -0.46415265   +4.31931336
 C   +3.40471316   -0.75778586   +3.97515092
 C   +4.41377050   -1.30598920   +4.92299795
 C   +4.94846889   -2.65917075   +4.48049567
 O   +2.22370023   -0.01549067   +1.34699939
 H   +5.71173054   -3.02112292   +5.16527475
 H   +0.51454394   +0.87778788   -0.37831224
 H   +5.39189659   -2.59832020   +3.48880700
 H   +4.15110777   -3.39753296   +4.44100953
 H   +3.98259611   -1.38122678   +5.92074691
 H   +5.24734119   -0.60450786   +4.99418367
 H   +3.72048765   -0.61145287   +2.95161852
 H   +1.85781451   -0.60996821   +5.35198393
 H   +1.01889283   +1.28152501   +3.65538935
 H   +0.09301918   -0.22789688   +3.77507695
 H   +0.49617149   -0.88825626   -0.37809722
 H   -1.04096227   +0.01029347   -0.29550588
 H   +0.92006293   +2.36606508   +3.80611057
22
 * E =  +1.794 kcal/mol ; (8) 177_153_018_239
 C   +0.00000000   +0.00000000   +0.00000000
 O   +0.00000000   +0.00000000   +1.41655210
 C   +1.20509879   +0.00000000   +1.98499951
 C   +1.08618377   +0.08126081   +3.46437962
 C   +2.14841129   -0.47793996   +4.31740199
 C   +3.39501932   -0.79134035   +3.96959941
 C   +4.40286174   -1.34031472   +4.91840081
 C   +5.63658856   -0.45685191   +5.02275079
 O   +2.22369315   -0.01516570   +1.34661518
 H   +6.37504004   -0.89425312   +5.69052163
 H   +0.51293732   +0.87869876   -0.37836790
 H   +5.37767316   +0.52855545   +5.40267800
 H   +6.10451222   -0.32331684   +4.04961994
 H   +4.70756446   -2.33144550   +4.57725516
 H   +3.95247169   -1.47293166   +5.90159954
 H   +3.71302161   -0.64150252   +2.94723517
 H   +1.85388540   -0.62110507   +5.35040807
 H   +1.03356254   +1.28079584   +3.65779486
 H   +0.09126763   -0.21923895   +3.77514583
 H   +0.49771268   -0.88738780   -0.37808464
 H   -1.04099385   +0.00849240   -0.29545895
 H   +0.94724807   +2.36550976   +3.81151165
22
 * E =  +1.867 kcal/mol ; (9) 176_153_018_000
 C   +0.00000000   +0.00000000   +0.00000000
 O   +0.00000000   +0.00000000   +1.41641482
 C   +1.20503277   +0.00000000   +1.98544790
 C   +1.08429664   +0.08680771   +3.46432725
 C   +2.14314505   -0.46795969   +4.32563694
 C   +3.39222571   -0.77150929   +3.97706978
 C   +4.42816648   -1.32246314   +4.89811940
 C   +4.00030007   -1.53262599   +6.33388269
 O   +2.22348456   -0.01793279   +1.34671460
 H   +4.82092541   -1.93286538   +6.92323857
 H   +0.51477961   +0.87765399   -0.37835339
 H   +3.17098905   -2.23399206   +6.40223575
 H   +3.68654658   -0.59829950   +6.79525967
 H   +5.29359411   -0.65704819   +4.86580763
 H   +4.78594002   -2.26515083   +4.47883701
 H   +3.69818037   -0.62053698   +2.95223364
 H   +1.83737694   -0.60703516   +5.35414863
 H   +1.02916211   +1.28674327   +3.65139146
 H   +0.08841459   -0.21294593   +3.77279520
 H   +0.49586432   -0.88835047   -0.37831103
 H   -1.04096651   +0.01065172   -0.29553143
 H   +0.94005760   +2.37318587   +3.79984193
22
 * E =  +2.946 kcal/mol ; (10) 182_306_018_121
 C   +0.00000000   +0.00000000   +0.00000000
 O   +0.00000000   +0.00000000   +1.41765835
 C   +1.20400463   +0.00000000   +1.98340706
 C   +1.15119253   -0.05744969   +3.46869375
 C   +0.36748484   +0.93022784   +4.23174011
 C   -0.60521028   +1.72711847   +3.79418459
 C   -1.33110539   +2.70166560   +4.65518009
 C   -1.18943736   +4.13202768   +4.15866163
 O   +2.22362852   -0.00410394   +1.34694342
 H   -1.75591455   +4.81996905   +4.78165437
 H   +0.50154174   +0.88482594   -0.37904909
 H   -1.55519736   +4.23015650   +3.13842236
 H   -0.14821134   +4.44521699   +4.16822669
 H   -0.97320932   +2.62431716   +5.68100142
 H   -2.39025111   +2.43751865   +4.67301924
 H   -0.89809368   +1.69058414   +2.75372543
 H   +0.63122283   +0.98087375   +5.28149737
 H   +0.68319032   -1.16708490   +3.70347484
 H   +2.16632814   -0.15309678   +3.83682193
 H   +0.50991974   -0.88099936   -0.37657811
 H   -1.04103473   -0.00641069   -0.29556664
 H   +0.30523021   -2.15461834   +3.89209500
22
 * E =  +2.966 kcal/mol ; (11) 183_306_018_239
 C   +0.00000000   +0.00000000   +0.00000000
 O   +0.00000000   +0.00000000   +1.41767227
 C   +1.20401223   +0.00000000   +1.98343580
 C   +1.15211405   -0.06532878   +3.46837168
 C   +0.35584189   +0.90607112   +4.23938296
 C   -0.62389643   +1.69789876   +3.80850386
 C   -1.37000105   +2.64589029   +4.68193626
 C   -2.86345454   +2.35912743   +4.70270355
 O   +2.22361595   +0.00001722   +1.34688864
 H   -3.39167138   +3.08358626   +5.31792412
 H   +0.50051805   +0.88531555   -0.37921795
 H   -3.06306014   +1.36702201   +5.10034288
 H   -3.28463907   +2.40443976   +3.70034222
 H   -1.21093890   +3.66336017   +4.31997327
 H   -0.96751040   +2.60878102   +5.69339305
 H   -0.92239767   +1.66164281   +2.76966203
 H   +0.61968093   +0.95136074   +5.28938007
 H   +0.69965312   -1.18220709   +3.69645125
 H   +2.16859988   -0.15037718   +3.83541564
 H   +0.51075165   -0.88053027   -0.37653796
 H   -1.04105497   -0.00754419   -0.29549797
 H   +0.33518138   -2.17681794   +3.88048984
22
 * E =  +3.031 kcal/mol ; (12) 182_306_018_000
 C   +0.00000000   +0.00000000   +0.00000000
 O   +0.00000000   +0.00000000   +1.41750867
 C   +1.20354043   +0.00000000   +1.98480917
 C   +1.14864034   -0.04987860   +3.47021168
 C   +0.36780139   +0.94465259   +4.22894398
 C   -0.60203340   +1.73764880   +3.77749403
 C   -1.35575977   +2.72890894   +4.59939107
 C   -0.96963344   +2.81042552   +6.05980136
 O   +2.22364802   -0.00809569   +1.34909119
 H   -1.57142775   +3.55542325   +6.57319588
 H   +0.50699580   -0.88260981   -0.37679433
 H   +0.07534434   +3.08962011   +6.17878266
 H   -1.12104149   +1.85804254   +6.56390318
 H   -2.41985775   +2.49860071   +4.51312928
 H   -1.24309873   +3.71055616   +4.13443802
 H   -0.88717895   +1.67880492   +2.73669998
 H   +0.63736305   +0.99751824   +5.27537319
 H   +0.67762786   -1.15707006   +3.71014464
 H   +2.16337896   -0.14702419   +3.83908370
 H   -1.04105325   -0.00308210   -0.29561269
 H   +0.50441962   +0.88319718   -0.37908052
 H   +0.29721171   -2.14254845   +3.90514054
22
 * E =  +8.259 kcal/mol ; (13) 357_171_212_000
 C   +0.00000000   +0.00000000   +0.00000000
 O   +0.00000000   +0.00000000   +1.41004591
 C   +1.13910875   +0.00000000   +2.11004115
 C   +2.42672001   -0.07631840   +1.35186255
 C   +3.62646900   +0.13199143   +2.16927976
 C   +4.73293875   +0.70762650   +1.70529905
 C   +5.98979752   +0.93509852   +2.47398153
 C   +5.97060441   +0.45045178   +3.90709018
 O   +1.08856054   +0.01610990   +3.30593463
 H   +6.91926394   +0.65928489   +4.39403364
 H   +0.37645595   +0.94126616   -0.39503870
 H   +5.79936544   -0.62260035   +3.95950517
 H   +5.18677132   +0.94109761   +4.47979753
 H   +6.21636266   +2.00302273   +2.44793780
 H   +6.81088635   +0.45966593   +1.93298146
 H   +4.74287153   +1.05767362   +0.67842442
 H   +3.56644320   -0.21838850   +3.18909708
 H   +2.42739348   -1.22443203   +0.93176601
 H   +2.42791746   +0.49551285   +0.42882931
 H   +0.57524542   -0.82920625   -0.40392230
 H   -1.03639268   -0.11344323   -0.29234718
 H   +2.41841422   -2.22719291   +0.50163988
22
 * E =  +8.294 kcal/mol ; (14) 356_171_212_239
 C   +0.00000000   +0.00000000   +0.00000000
 O   +0.00000000   +0.00000000   +1.41001400
 C   +1.13885361   +0.00000000   +2.11029491
 C   +2.42640514   -0.08197053   +1.35252923
 C   +3.62678587   +0.12529015   +2.16883526
 C   +4.74102464   +0.68899155   +1.70960479
 C   +5.97884033   +0.90332458   +2.50781600
 C   +6.37198146   +2.37013813   +2.58538739
 O   +1.08844624   +0.01977112   +3.30605381
 H   +7.29534043   +2.49745169   +3.14501571
 H   +0.38332324   +0.93839762   -0.39521880
 H   +5.59633938   +2.95390976   +3.07486374
 H   +6.52591473   +2.78811567   +1.59227466
 H   +6.79640942   +0.34042074   +2.05324828
 H   +5.83936823   +0.49832365   +3.50861530
 H   +4.76679544   +1.04242514   +0.68316364
 H   +3.56931955   -0.21826875   +3.19245659
 H   +2.42449764   -1.23144113   +0.93556433
 H   +2.43010035   +0.48704819   +0.42785852
 H   +0.56874458   -0.83361127   -0.40411610
 H   -1.03723159   -0.10577550   -0.29220842
 H   +2.41215412   -2.23477039   +0.50838846
22
 * E =  +8.324 kcal/mol ; (15) 356_171_212_120
 C   +0.00000000   +0.00000000   +0.00000000
 O   +0.00000000   +0.00000000   +1.41001932
 C   +1.13881393   +0.00000000   +2.11035180
 C   +2.42642750   -0.08147016   +1.35267361
 C   +3.62655143   +0.12688425   +2.16922765
 C   +4.73973984   +0.69330510   +1.71089014
 C   +5.98246230   +0.89426976   +2.50494839
 C   +7.18179730   +0.18889617   +1.89074985
 O   +1.08841949   +0.01906260   +3.30610762
 H   +8.08304432   +0.37764844   +2.46882201
 H   +0.38168348   +0.93907290   -0.39520428
 H   +7.36173457   +0.53359988   +0.87418475
 H   +7.02296510   -0.88609480   +1.85308051
 H   +5.82231716   +0.54530172   +3.52354928
 H   +6.19463272   +1.96292467   +2.56957053
 H   +4.76910205   +1.03713946   +0.68132469
 H   +3.56794791   -0.21441892   +3.19355573
 H   +2.42548262   -1.23126197   +0.93734248
 H   +2.42980483   +0.48669972   +0.42754011
 H   +0.57027562   -0.83257815   -0.40408579
 H   -1.03703751   -0.10760515   -0.29222796
 H   +2.41419256   -2.23574185   +0.51180170
22
 * E = +10.469 kcal/mol ; (16) 356_171_022_120
 C   +0.00000000   +0.00000000   +0.00000000
 O   +0.00000000   +0.00000000   +1.40938102
 C   +1.13012371   +0.00000000   +2.12874206
 C   +2.41596656   -0.08376504   +1.36993404
 C   +3.69673367   +0.12073393   +2.06664901
 C   +3.95739371   -0.00081125   +3.36738759
 C   +5.30753727   +0.21243823   +3.95691674
 C   +5.31519643   +1.32379969   +4.99517939
 O   +1.04472580   +0.02547579   +3.32204327
 H   +6.30070437   +1.43432841   +5.44116849
 H   +0.38121488   +0.93916682   -0.39589756
 H   +4.60765391   +1.11583003   +5.79486532
 H   +5.03661891   +2.27481139   +4.54774875
 H   +6.02760977   +0.42958384   +3.16854048
 H   +5.63293783   -0.71518829   +4.43199226
 H   +3.15530841   -0.24066681   +4.05004609
 H   +4.51998397   +0.36328980   +1.40487799
 H   +2.39882504   -1.21944297   +0.92874256
 H   +2.37331986   +0.48510111   +0.44599022
 H   +0.56920207   -0.83266690   -0.40536707
 H   -1.03749897   -0.10699923   -0.29129788
 H   +2.35145070   -2.23498775   +0.50487218
22
 * E = +10.479 kcal/mol ; (17) 357_170_022_239
 C   +0.00000000   +0.00000000   +0.00000000
 O   +0.00000000   +0.00000000   +1.40948925
 C   +1.13180998   +0.00000000   +2.12666484
 C   +2.41606649   -0.06998972   +1.36328558
 C   +3.69745884   +0.14799334   +2.05464174
 C   +3.96828255   +0.01522502   +3.35200988
 C   +5.32073356   +0.23240848   +3.93476102
 C   +5.84464930   -1.00499483   +4.64759587
 O   +1.04958590   +0.01632119   +3.32027177
 H   +6.81520098   -0.81351363   +5.09890952
 H   +0.37610610   +0.94111304   -0.39611907
 H   +5.95135763   -1.83681763   +3.95535587
 H   +5.16527622   -1.31712156   +5.43795882
 H   +5.26767462   +1.05485732   +4.65032921
 H   +6.01683068   +0.53956477   +3.15487078
 H   +3.17777061   -0.25822814   +4.03507968
 H   +4.51153878   +0.41660184   +1.39161877
 H   +2.40911852   -1.20504584   +0.92122394
 H   +2.36396871   +0.49964866   +0.44044925
 H   +0.57326897   -0.82979935   -0.40539231
 H   -1.03697978   -0.11235855   -0.29121674
 H   +2.37081753   -2.22095122   +0.49606088
22
 * E = +10.532 kcal/mol ; (18) 356_171_023_359
 C   +0.00000000   +0.00000000   +0.00000000
 O   +0.00000000   +0.00000000   +1.40934929
 C   +1.12992625   +0.00000000   +2.12944700
 C   +2.41474113   -0.10382806   +1.37107935
 C   +3.70038434   +0.08832245   +2.06358599
 C   +3.95384128   -0.05513759   +3.36371063
 C   +5.29113406   +0.12775430   +3.99739051
 C   +6.42853186   +0.49206426   +3.06895102
 O   +1.04301916   +0.04002467   +3.32227637
 H   +7.35588718   +0.60096859   +3.62484306
 H   +0.38755730   +0.93664644   -0.39573812
 H   +6.23741292   +1.43347217   +2.55756364
 H   +6.58494573   -0.27421193   +2.31214747
 H   +5.53422108   -0.79099028   +4.53557598
 H   +5.19212934   +0.88744526   +4.77542245
 H   +3.14244085   -0.30564851   +4.02986991
 H   +4.51659537   +0.33711761   +1.39839402
 H   +2.38087908   -1.24033224   +0.93481793
 H   +2.37642094   +0.46171786   +0.44485719
 H   +0.56354071   -0.83637888   -0.40565181
 H   -1.03824112   -0.09990737   -0.29123383
 H   +2.31852339   -2.25789400   +0.51485504
22
 * E = +10.705 kcal/mol ; (19) 344_290_008_238
 C   +0.00000000   +0.00000000   +0.00000000
 O   +0.00000000   +0.00000000   +1.41394919
 C   +1.13241238   +0.00000000   +2.12142162
 C   +2.42110060   -0.35730704   +1.44616940
 C   +2.60679420   -1.76146153   +1.04866648
 C   +1.68311636   -2.72020394   +1.09770878
 C   +1.91471613   -4.13786136   +0.70796177
 C   +0.97495814   -4.59709008   -0.39603188
 O   +1.09046626   +0.24696298   +3.29201970
 H   +1.13770912   -5.64503602   -0.63495357
 H   +0.27802054   +0.97957828   -0.37848368
 H   +1.12657925   -4.01733245   -1.30359375
 H   -0.06531383   -4.48304670   -0.09776821
 H   +1.76802085   -4.77187291   +1.58391791
 H   +2.95058698   -4.26769691   +0.39819454
 H   +0.68609821   -2.47909835   +1.45267187
 H   +3.60292024   -2.01348873   +0.70605899
 H   +2.56735216   +0.35657784   +0.41945002
 H   +3.23690809   +0.01251334   +2.05787129
 H   +0.66212693   -0.75840855   -0.40711724
 H   -1.01960710   -0.21870338   -0.29242937
 H   +2.77767872   +0.94713250   -0.39196616
