22
 * E =  +0.000 kcal/mol ; (1) 178_163_221_017
 C   +0.00000000   +0.00000000   +0.00000000
 C   +0.00000000   +0.00000000   +1.49997896
 O   +1.23831890   +0.00000000   +1.98540736
 O   -0.97735593   +0.02757623   +2.19652829
 C   +1.33613941   +0.05230950   +3.39837548
 H   +2.39480837   +0.04043413   +3.62216624
 H   +0.87528510   +0.95958024   +3.77620954
 H   +0.84094428   -0.80488615   +3.84328110
 C   -1.30684891   -0.40948066   -0.57604420
 C   -1.41977255   -1.21148907   -1.64281874
 C   -2.70671964   -1.69788462   -2.23240689
 C   -3.93773808   -0.92987716   -1.80412818
 H   +0.24188973   +1.02458591   -0.29895153
 H   -2.18362222   +0.02957104   -0.12255925
 H   -0.52196091   -1.68568962   -2.02321386
 H   -2.62014233   -1.67907541   -3.31816374
 H   -2.81750757   -2.75136607   -1.96642049
 H   -4.82172839   -1.31084958   -2.30853534
 H   -4.10910403   -1.01192309   -0.73325815
 H   -3.84022964   +0.12636166   -2.04835731
 H   +0.81929998   -0.61757331   -0.35870706
 H   -1.02990054   +0.16541672   -3.02538353
22
 * E =  +0.029 kcal/mol ; (2) 178_163_220_256
 C   +0.00000000   +0.00000000   +0.00000000
 C   +0.00000000   +0.00000000   +1.50004900
 O   +1.23836155   +0.00000000   +1.98500265
 O   -0.97734690   +0.02683999   +2.19653246
 C   +1.33660334   +0.05063665   +3.39806912
 H   +2.39533921   +0.03946049   +3.62150515
 H   +0.87493109   +0.95699438   +3.77705692
 H   +0.84227434   -0.80758914   +3.84194649
 C   -1.31093393   -0.39466303   -0.57606494
 C   -1.44467211   -1.18885093   -1.64606774
 C   -2.75912178   -1.64940409   -2.18834574
 C   -3.03848756   -3.09952834   -1.82553915
 H   +0.25413832   +1.02133406   -0.29983862
 H   -2.18725640   +0.04520378   -0.11894965
 H   -0.56341061   -1.68669522   -2.03701274
 H   -3.55152072   -1.00971059   -1.80335512
 H   -2.76727223   -1.54100222   -3.27195041
 H   -3.98419365   -3.43120800   -2.24787142
 H   -2.25773035   -3.75606100   -2.20517997
 H   -3.08461389   -3.22801845   -0.74691057
 H   +0.81176068   -0.62733187   -0.35891143
 H   -1.00531951   +0.14936837   -3.05139010
22
 * E =  +0.075 kcal/mol ; (3) 182_200_132_018
 C   +0.00000000   +0.00000000   +0.00000000
 C   +0.00000000   +0.00000000   +1.50137706
 O   +1.23789370   +0.00000000   +1.98728305
 O   -0.97808337   -0.03084705   +2.19640659
 C   +1.33449857   -0.04943766   +3.40050660
 H   +2.39303270   -0.04056828   +3.62509698
 H   +0.84211285   +0.81082757   +3.84253816
 H   +0.86995576   -0.95406358   +3.78017524
 C   -1.29362626   +0.45881317   -0.57005344
 C   -1.38289303   +1.37538461   -1.54337117
 C   -2.64824408   +1.80547629   -2.21779922
 C   -3.91875996   +1.45667218   -1.47397857
 H   +0.83714755   +0.59358272   -0.35795201
 H   -2.18460067   +0.05901781   -0.10804678
 H   -0.46489115   +1.72198734   -2.00487031
 H   -2.60302427   +2.88115021   -2.38340108
 H   -2.66654713   +1.35691535   -3.21356666
 H   -4.78758001   +1.85230538   -1.99324572
 H   -4.05082728   +0.38053873   -1.38668454
 H   -3.90642579   +1.87432736   -0.46916039
 H   +0.20786662   -1.03220270   -0.29532580
 H   -1.16942668   +2.98254109   -0.40715757
22
 * E =  +0.146 kcal/mol ; (4) 182_200_133_257
 C   +0.00000000   +0.00000000   +0.00000000
 C   +0.00000000   +0.00000000   +1.50133406
 O   +1.23767276   +0.00000000   +1.98727063
 O   -0.97842683   -0.03098292   +2.19581965
 C   +1.33413820   -0.04969350   +3.40059477
 H   +2.39255766   -0.03638290   +3.62541199
 H   +0.83771942   +0.80812627   +3.84280702
 H   +0.87353817   -0.95662953   +3.77956694
 C   -1.29328744   +0.45865647   -0.57020274
 C   -1.39320901   +1.35767159   -1.55850199
 C   -2.68011204   +1.73768605   -2.21701823
 C   -2.82582783   +1.08927453   -3.58490953
 H   +0.83678682   +0.59348315   -0.35884761
 H   -2.18810707   +0.07150818   -0.10144138
 H   -0.48550389   +1.69321932   -2.04941915
 H   -3.51106592   +1.44817094   -1.57597155
 H   -2.72987618   +2.82013550   -2.32496976
 H   -3.75200812   +1.39670996   -4.06489850
 H   -2.00393430   +1.36911786   -4.24134197
 H   -2.83015250   +0.00491060   -3.50347650
 H   +0.20744962   -1.03223500   -0.29553067
 H   -1.12059386   +3.00463443   -0.49566512
22
 * E =  +0.261 kcal/mol ; (5) 178_163_219_138
 C   +0.00000000   +0.00000000   +0.00000000
 C   +0.00000000   +0.00000000   +1.49978869
 O   +1.23812279   +0.00000000   +1.98535858
 O   -0.97756974   +0.02784173   +2.19599262
 C   +1.33548121   +0.05309601   +3.39839024
 H   +2.39406183   +0.04095179   +3.62254414
 H   +0.87482796   +0.96079123   +3.77543580
 H   +0.83972659   -0.80362342   +3.84357140
 C   -1.30619056   -0.40825593   -0.57703276
 C   -1.42689920   -1.18631036   -1.66105453
 C   -2.73184097   -1.65655605   -2.21676872
 C   -2.82847395   -1.59128672   -3.72997993
 H   +0.24143176   +1.02459000   -0.30005089
 H   -2.18810072   +0.00938956   -0.11038257
 H   -0.53747745   -1.66055757   -2.06303673
 H   -2.86811986   -2.69343995   -1.90233947
 H   -3.54237978   -1.08947663   -1.76203180
 H   -3.75204729   -2.04683189   -4.07908195
 H   -2.80240234   -0.56244089   -4.08006352
 H   -1.99933647   -2.11848007   -4.19848217
 H   +0.81934711   -0.61693251   -0.35951195
 H   -0.90484545   +0.21763891   -2.99676899
22
 * E =  +0.383 kcal/mol ; (6) 182_200_133_139
 C   +0.00000000   +0.00000000   +0.00000000
 C   +0.00000000   +0.00000000   +1.50138140
 O   +1.23763516   +0.00000000   +1.98755250
 O   -0.97842023   -0.03072019   +2.19593459
 C   +1.33370363   -0.04795898   +3.40089079
 H   +2.39211969   -0.03741229   +3.62592843
 H   +0.83985135   +0.81204180   +3.84177226
 H   +0.87025501   -0.95289421   +3.78116542
 C   -1.29180572   +0.46359609   -0.56916219
 C   -1.38549944   +1.36914741   -1.55261094
 C   -2.66790241   +1.76435895   -2.21025919
 C   -2.79776627   +3.25070404   -2.48732077
 H   +0.83782963   +0.59258147   -0.35811948
 H   -2.18824537   +0.07717793   -0.10343434
 H   -0.47538698   +1.70581366   -2.03862490
 H   -2.73178234   +1.22544336   -3.15810635
 H   -3.50397129   +1.41886419   -1.60432197
 H   -3.69692574   +3.46049690   -3.06164889
 H   -2.84427471   +3.81852375   -1.56160277
 H   -1.94580101   +3.61876527   -3.05621871
 H   +0.20564014   -1.03237551   -0.29618169
 H   -1.00588039   +2.98252150   -0.43339411
22
 * E =  +0.418 kcal/mol ; (7) 181_309_235_017
 C   +0.00000000   +0.00000000   +0.00000000
 C   +0.00000000   +0.00000000   +1.50141073
 O   +1.23591012   +0.00000000   +1.99572654
 O   -0.98094143   -0.01569022   +2.19233081
 C   +1.32378454   -0.01210965   +3.40996212
 H   +2.38092339   -0.00539320   +3.64132034
 H   +0.83524274   +0.86320922   +3.82611157
 H   +0.85010481   -0.90271603   +3.81075223
 C   +0.86210770   +1.06396501   -0.58809130
 C   +0.40926846   +1.97151365   -1.46400092
 C   +1.20652641   +3.10233317   -2.03517119
 C   +2.70622043   +2.96760566   -1.88879222
 H   +0.36185844   -0.98195712   -0.31451454
 H   +1.90845049   +1.03780486   -0.31964597
 H   -0.65651848   +2.00269331   -1.65919379
 H   +0.94817100   +3.21169254   -3.08762626
 H   +0.86906675   +4.02310533   -1.55445945
 H   +3.21453734   +3.79845911   -2.37064734
 H   +3.00866674   +2.95973329   -0.84394550
 H   +3.05933643   +2.04581784   -2.34753308
 H   -1.03040307   +0.09528838   -0.32489400
 H   +0.46612639   +0.81400766   -3.07367768
22
 * E =  +0.458 kcal/mol ; (8) 181_309_235_256
 C   +0.00000000   +0.00000000   +0.00000000
 C   +0.00000000   +0.00000000   +1.50150809
 O   +1.23574918   +0.00000000   +1.99598456
 O   -0.98123569   -0.01570914   +2.19189130
 C   +1.32312120   -0.01231725   +3.41030750
 H   +2.38018896   -0.00827346   +3.64199181
 H   +0.83668073   +0.86429767   +3.82617457
 H   +0.84685886   -0.90165941   +3.81081051
 C   +0.86505555   +1.06036226   -0.58909223
 C   +0.42507183   +1.97336857   -1.46563925
 C   +1.25770853   +3.09539660   -1.99661721
 C   +0.89428752   +4.42073132   -1.34526019
 H   +0.35796437   -0.98334521   -0.31466889
 H   +1.91310360   +1.03680328   -0.32090171
 H   -0.64011869   +2.02907840   -1.66298740
 H   +2.31070272   +2.87389116   -1.83000944
 H   +1.12114062   +3.17463541   -3.07402835
 H   +1.48665075   +5.23309593   -1.75975917
 H   -0.15516561   +4.66089531   -1.50426433
 H   +1.06706982   +4.38776110   -0.27227132
 H   -1.02989322   +0.09930300   -0.32519038
 H   +0.41528703   +0.83633699   -3.08925402
22
 * E =  +0.508 kcal/mol ; (9) 179_042_116_018
 C   +0.00000000   +0.00000000   +0.00000000
 C   +0.00000000   +0.00000000   +1.50362483
 O   +1.23251234   +0.00000000   +2.00387417
 O   -0.98505261   +0.02895153   +2.18801838
 C   +1.31261568   +0.02144610   +3.41850698
 H   +2.36842342   +0.00852430   +3.65559883
 H   +0.84297718   +0.91807601   +3.81066362
 H   +0.81566372   -0.84789701   +3.83695440
 C   +1.01564914   -0.90429087   -0.60710691
 C   +0.69421883   -1.96683777   -1.35857913
 C   +1.66773294   -2.85629647   -2.06745078
 C   +3.09271537   -2.77262343   -1.56619646
 H   -1.00613073   -0.25191873   -0.31862606
 H   +2.04803744   -0.70679239   -0.35761756
 H   -0.34805023   -2.10793752   -1.62140571
 H   +1.31298230   -3.88357632   -1.99615053
 H   +1.63389367   -2.60847547   -3.13064918
 H   +3.72568868   -3.48433659   -2.08938846
 H   +3.51583303   -1.78247790   -1.72073304
 H   +3.14214150   -2.99615135   -0.50211652
 H   +0.19054896   +1.03257145   -0.30185475
 H   +0.30394066   -3.22055599   +0.12144910
22
 * E =  +0.568 kcal/mol ; (10) 179_042_116_257
 C   +0.00000000   +0.00000000   +0.00000000
 C   +0.00000000   +0.00000000   +1.50370890
 O   +1.23259061   +0.00000000   +2.00348742
 O   -0.98499679   +0.02895686   +2.18805009
 C   +1.31328436   +0.02136958   +3.41818551
 H   +2.36919963   +0.00968716   +3.65477184
 H   +0.84264484   +0.91737854   +3.81051527
 H   +0.81762336   -0.84869055   +3.83663835
 C   +1.01440637   -0.90491756   -0.60723916
 C   +0.70308269   -1.96840093   -1.36147544
 C   +1.71022208   -2.81717364   -2.06860611
 C   +1.76273113   -2.50588848   -3.55632385
 H   -1.00594645   -0.25187394   -0.31908361
 H   +2.05011968   -0.71011294   -0.36284739
 H   -0.33396379   -2.11677942   -1.64345520
 H   +2.69032274   -2.66277150   -1.62008449
 H   +1.46431735   -3.86878561   -1.92979438
 H   +2.47754862   -3.14961052   -4.06358074
 H   +0.79125182   -2.65732122   -4.02299788
 H   +2.05512736   -1.47274841   -3.72828015
 H   +0.19133573   +1.03226457   -0.30227561
 H   +0.25393291   -3.23926603   +0.08345892
22
 * E =  +0.676 kcal/mol ; (11) 181_309_235_138
 C   +0.00000000   +0.00000000   +0.00000000
 C   +0.00000000   +0.00000000   +1.50139034
 O   +1.23590824   +0.00000000   +1.99537685
 O   -0.98094639   -0.01593038   +2.19223878
 C   +1.32455195   -0.01143541   +3.40960201
 H   +2.38177434   -0.00094203   +3.64037447
 H   +0.83309418   +0.86226413   +3.82568210
 H   +0.85427635   -0.90364162   +3.81086048
 C   +0.86916831   +1.05603165   -0.59036013
 C   +0.43277000   +1.96245712   -1.47610461
 C   +1.26617692   +3.07897036   -2.01638710
 C   +1.09538957   +3.32677323   -3.50385377
 H   +0.35443755   -0.98479618   -0.31463091
 H   +1.91559358   +1.03348562   -0.31670917
 H   -0.63115318   +2.01512333   -1.68173474
 H   +0.98618883   +3.98630651   -1.47694226
 H   +2.31346687   +2.89405520   -1.78243297
 H   +1.63798739   +4.21699418   -3.81267249
 H   +1.46195953   +2.48515321   -4.08604823
 H   +0.04704836   +3.47060296   -3.75864986
 H   -1.02946204   +0.10230279   -0.32567332
 H   +0.36564108   +0.72789206   -3.05193347
22
 * E =  +0.829 kcal/mol ; (12) 179_040_116_140
 C   +0.00000000   +0.00000000   +0.00000000
 C   +0.00000000   +0.00000000   +1.50386933
 O   +1.23190600   +0.00000000   +2.00507951
 O   -0.98573939   +0.03089860   +2.18715082
 C   +1.31081988   +0.02299706   +3.41978738
 H   +2.36641886   +0.00994372   +3.65776744
 H   +0.84107560   +0.92020005   +3.81050874
 H   +0.81318915   -0.84576619   +3.83859670
 C   +1.04179990   -0.87054766   -0.61026787
 C   +0.76030415   -1.94453531   -1.36167385
 C   +1.78742839   -2.76735208   -2.07009830
 C   +1.53224209   -4.26262094   -2.02765507
 H   -0.99808555   -0.28313925   -0.31799098
 H   +2.07123253   -0.64218663   -0.36950034
 H   -0.27333179   -2.12847174   -1.63583384
 H   +1.80217320   -2.44558490   -3.11369815
 H   +2.77286463   -2.54042964   -1.66602489
 H   +2.24654853   -4.79501488   -2.65102192
 H   +1.61282653   -4.64547770   -1.01350800
 H   +0.53331710   -4.49928582   -2.38937591
 H   +0.15543374   +1.03876439   -0.30074885
 H   +0.27871423   -3.16980451   +0.14564616
22
 * E =  +1.680 kcal/mol ; (13) 177_150_346_255
 C   +0.00000000   +0.00000000   +0.00000000
 C   +0.00000000   +0.00000000   +1.49934934
 O   +1.24449552   +0.00000000   +1.97222397
 O   -0.96492559   +0.04123905   +2.21237228
 C   +1.35680780   +0.06795760   +3.38305738
 H   +2.41782193   +0.06409201   +3.59565361
 H   +0.89433513   +0.97622193   +3.75658691
 H   +0.87167148   -0.78766319   +3.84189495
 C   -1.14802275   -0.66562249   -0.67804911
 C   -2.04952429   -1.48977470   -0.12950580
 C   -3.19124763   -2.07828766   -0.89359748
 C   -4.50814272   -1.40446793   -0.54055552
 H   +0.04183075   +1.04959668   -0.29985564
 H   -1.18121175   -0.51055099   -1.74980805
 H   -2.08411618   -1.59245858   +0.94640848
 H   -3.00109153   -1.98959483   -1.96256498
 H   -3.26376001   -3.14304209   -0.67577776
 H   -5.33627782   -1.86305096   -1.07617792
 H   -4.71450850   -1.48405038   +0.52471167
 H   -4.48387868   -0.34707584   -0.79262863
 H   +0.94136704   -0.43244932   -0.33777821
 H   -0.88116078   -3.11820955   -0.01549298
22
 * E =  +1.720 kcal/mol ; (14) 177_151_344_016
 C   +0.00000000   +0.00000000   +0.00000000
 C   +0.00000000   +0.00000000   +1.49940141
 O   +1.24529923   +0.00000000   +1.97089252
 O   -0.96368477   +0.04236132   +2.21403640
 C   +1.35963451   +0.07132519   +3.38127258
 H   +2.42092503   +0.06531687   +3.59253931
 H   +0.90009071   +0.98180033   +3.75309506
 H   +0.87286110   -0.78170196   +3.84322103
 C   -1.15492048   -0.64962987   -0.68299988
 C   -2.04666526   -1.48336930   -0.13326091
 C   -3.20421039   -2.09573319   -0.85810404
 C   -3.13957453   -2.02873964   -2.36792441
 H   +0.05583231   +1.04952642   -0.29764860
 H   -1.19010309   -0.47217472   -1.74938925
 H   -2.04967681   -1.60495969   +0.94026046
 H   -3.29570913   -3.13407950   -0.54121490
 H   -4.11292290   -1.60409949   -0.50446229
 H   -3.98902299   -2.54174380   -2.81104515
 H   -3.15523647   -1.00155286   -2.72634747
 H   -2.23160955   -2.50046761   -2.73979686
 H   +0.93702165   -0.44272819   -0.33681593
 H   -0.86074439   -3.10878611   -0.13123473
22
 * E =  +1.879 kcal/mol ; (15) 177_150_347_136
 C   +0.00000000   +0.00000000   +0.00000000
 C   +0.00000000   +0.00000000   +1.49916666
 O   +1.24470929   +0.00000000   +1.97123200
 O   -0.96445298   +0.04224365   +2.21297051
 C   +1.35844681   +0.06778581   +3.38193315
 H   +2.41969473   +0.06454793   +3.59338548
 H   +0.89585051   +0.97568595   +3.75621862
 H   +0.87447881   -0.78832377   +3.84110222
 C   -1.14596736   -0.66644430   -0.68040185
 C   -2.06451940   -1.46927416   -0.12675845
 C   -3.19980150   -2.06571561   -0.89358472
 C   -3.45499936   -3.53062245   -0.58838804
 H   +0.04316442   +1.04952367   -0.30024927
 H   -1.16233247   -0.53252232   -1.75521099
 H   -2.11575825   -1.54882454   +0.95041179
 H   -4.09778279   -1.49659379   -0.64423688
 H   -3.03380538   -1.92725404   -1.96136180
 H   -4.35501061   -3.87999940   -1.08892005
 H   -2.62213341   -4.14919826   -0.91346140
 H   -3.58417954   -3.68944643   +0.48044395
 H   +0.94138179   -0.43346152   -0.33645746
 H   -0.83448840   -3.05116575   +0.12002078
22
 * E =  +8.254 kcal/mol ; (16) 357_174_222_017
 C   +0.00000000   +0.00000000   +0.00000000
 C   +0.00000000   +0.00000000   +1.50788460
 O   +1.18708099   +0.00000000   +2.12572289
 O   -0.99738133   +0.02793623   +2.16603252
 C   +2.39380069   -0.05834734   +1.40061852
 H   +3.18300974   +0.04735560   +2.13435639
 H   +2.50791948   -1.01451273   +0.89473399
 H   +2.47156922   +0.75046442   +0.67809931
 C   -1.36792574   -0.14797964   -0.56026981
 C   -1.64704484   -0.92761245   -1.61276900
 C   -3.00985724   -1.15447822   -2.18791571
 C   -4.05706171   -0.14622146   -1.76912251
 H   +0.43839926   +0.94978380   -0.32314137
 H   -2.13477867   +0.46241950   -0.10740299
 H   -0.86690650   -1.58095202   -1.98765072
 H   -2.92929319   -1.17334387   -3.27413210
 H   -3.32829305   -2.15882177   -1.90059632
 H   -5.00325557   -0.34965798   -2.26329677
 H   -4.23382285   -0.17404021   -0.69645121
 H   -3.75051508   +0.86424018   -2.03334518
 H   +0.66250890   -0.77637922   -0.37898214
 H   -0.98933425   +0.31559805   -3.02100564
22
 * E =  +8.284 kcal/mol ; (17) 357_174_222_256
 C   +0.00000000   +0.00000000   +0.00000000
 C   +0.00000000   +0.00000000   +1.50801354
 O   +1.18689752   +0.00000000   +2.12592033
 O   -0.99765390   +0.02732147   +2.16570528
 C   +2.39400138   -0.05808802   +1.40147759
 H   +3.18278017   +0.03892758   +2.13686891
 H   +2.50499292   -1.01088060   +0.88865122
 H   +2.47631735   +0.75597814   +0.68536599
 C   -1.36796448   -0.14613181   -0.55984827
 C   -1.65995591   -0.92680813   -1.60787520
 C   -3.04211612   -1.13841514   -2.13511128
 C   -3.59538152   -2.49439522   -1.72538452
 H   +0.44053313   +0.94841278   -0.32412381
 H   -2.13832882   +0.46436983   -0.10959606
 H   -0.89562378   -1.59847205   -1.98516703
 H   -3.69206477   -0.34507290   -1.77006558
 H   -3.03553844   -1.06406971   -3.22157223
 H   -4.59090804   -2.64787933   -2.13519548
 H   -2.96083388   -3.30207386   -2.08563426
 H   -3.65668064   -2.57753446   -0.64319863
 H   +0.66000335   -0.77833610   -0.37914596
 H   -0.97154495   +0.25906003   -3.04991104
22
 * E =  +8.529 kcal/mol ; (18) 357_174_221_138
 C   +0.00000000   +0.00000000   +0.00000000
 C   +0.00000000   +0.00000000   +1.50771002
 O   +1.18718064   +0.00000000   +2.12515941
 O   -0.99733929   +0.02787460   +2.16585373
 C   +2.39372163   -0.05830272   +1.39969536
 H   +3.18310672   +0.04897888   +2.13299615
 H   +2.50833345   -1.01504682   +0.89498725
 H   +2.47051034   +0.74957790   +0.67603896
 C   -1.36679613   -0.14737556   -0.56190087
 C   -1.64908310   -0.91204525   -1.62504770
 C   -3.02523980   -1.12160025   -2.16735994
 C   -3.11341464   -1.08406587   -3.68193863
 H   +0.43849491   +0.94949962   -0.32441126
 H   -2.14200476   +0.44982048   -0.10274872
 H   -0.87810737   -1.56966571   -2.01372255
 H   -3.36862257   -2.09833543   -1.82035527
 H   -3.70016103   -0.38722393   -1.73118762
 H   -4.11253932   -1.35037607   -4.01810669
 H   -2.87836846   -0.09366223   -4.06362569
 H   -2.41286677   -1.78469762   -4.13284242
 H   +0.66228491   -0.77629536   -0.37930516
 H   -0.85645598   +0.31746548   -2.99799183
22
 * E =  +8.820 kcal/mol ; (19) 003_086_228_017
 C   +0.00000000   +0.00000000   +0.00000000
 C   +0.00000000   +0.00000000   +1.51105806
 O   +1.17237778   +0.00000000   +2.15173176
 O   -1.01191227   -0.04034523   +2.14765149
 C   +2.39391019   +0.05684150   +1.44921783
 H   +3.16696733   -0.09437108   +2.19241636
 H   +2.45849937   -0.72563480   +0.69822940
 H   +2.53614302   +1.03096931   +0.98618875
 C   +0.10821042   -1.39397412   -0.52642472
 C   +0.97304103   -1.76578501   -1.48096028
 C   +1.14751331   -3.15794738   -2.00292788
 C   +0.01266447   -4.10688851   -1.68620720
 H   -0.95822118   +0.42720756   -0.28753276
 H   -0.62138849   -2.09773679   -0.14992967
 H   +1.72155661   -1.04761162   -1.79871485
 H   +1.29513698   -3.10665814   -3.08077318
 H   +2.08289359   -3.55157384   -1.59888212
 H   +0.18823106   -5.07786978   -2.14098455
 H   -0.09548027   -4.26173597   -0.61508087
 H   -0.93178312   -3.72314598   -2.06731930
 H   +0.78829646   +0.62465157   -0.41228732
 H   -0.04683277   -1.06862852   -3.02784847
22
 * E =  +8.875 kcal/mol ; (20) 003_085_229_256
 C   +0.00000000   +0.00000000   +0.00000000
 C   +0.00000000   +0.00000000   +1.51130934
 O   +1.17203223   +0.00000000   +2.15227130
 O   -1.01224965   -0.04049469   +2.14728410
 C   +2.39435440   +0.05741697   +1.45092668
 H   +3.16660314   -0.09386160   +2.19493869
 H   +2.45996694   -0.72486318   +0.69982574
 H   +2.53681436   +1.03180665   +0.98853251
 C   +0.11221631   -1.39315629   -0.52632416
 C   +0.97702138   -1.77414689   -1.47682074
 C   +1.13826657   -3.18315974   -1.94881020
 C   +2.39480045   -3.82443330   -1.38061212
 H   -0.95936328   +0.42467469   -0.28748695
 H   -0.61285879   -2.10392647   -0.14989106
 H   +1.73819141   -1.06956667   -1.79742400
 H   +0.26174302   -3.76169073   -1.66250211
 H   +1.18443306   -3.20148097   -3.03640023
 H   +2.51632909   -4.83835571   -1.75386517
 H   +3.28378301   -3.26148574   -1.65943318
 H   +2.35391578   -3.86747534   -0.29475036
 H   +0.78642457   +0.62629883   -0.41319295
 H   +0.01495240   -1.05744308   -3.05369478
22
 * E =  +8.943 kcal/mol ; (21) 000_262_130_020
 C   +0.00000000   +0.00000000   +0.00000000
 C   +0.00000000   +0.00000000   +1.51259045
 O   +1.16282609   +0.00000000   +2.16564113
 O   -1.02096552   +0.03216611   +2.13596971
 C   +2.39600705   -0.00446887   +1.47979668
 H   +3.15314932   +0.14485171   +2.23952284
 H   +2.57009095   -0.96025819   +0.99020759
 H   +2.45261691   +0.80502138   +0.75643783
 C   -0.19076863   +1.38768116   -0.52064449
 C   +0.59138180   +1.95954948   -1.44627443
 C   +0.33291368   +3.28058713   -2.10321039
 C   -0.62242432   +4.18830524   -1.36001246
 H   +0.88857984   -0.45270956   -0.42911703
 H   -1.01552839   +1.93769060   -0.08863153
 H   +1.37786844   +1.35924682   -1.89100566
 H   +1.28459230   +3.78914221   -2.25036122
 H   -0.05038156   +3.08128179   -3.10642539
 H   -0.71326276   +5.14485545   -1.86726019
 H   -1.61886546   +3.75759186   -1.29367719
 H   -0.26992899   +4.37615951   -0.34751027
 H   -0.85871444   -0.60820548   -0.27842237
 H   +2.00958374   +2.70491119   -0.24677806
22
 * E =  +9.012 kcal/mol ; (22) 003_083_024_018
 C   +0.00000000   +0.00000000   +0.00000000
 C   +0.00000000   +0.00000000   +1.50612740
 O   +1.17560660   +0.00000000   +2.13878903
 O   -1.00930459   -0.03791848   +2.14904604
 C   +2.39101641   +0.06505901   +1.42639903
 H   +3.16977312   -0.11739602   +2.15629591
 H   +2.44180402   -0.69880240   +0.65417362
 H   +2.53649140   +1.05177232   +0.99144374
 C   +0.16948105   -1.38004097   -0.56636859
 C   -0.14849889   -2.51110518   +0.07859474
 C   -0.14153736   -3.88017443   -0.52744235
 C   +0.64664615   -4.01670839   -1.81138856
 H   -0.96002593   +0.41104988   -0.30516475
 H   +0.56622606   -1.42948610   -1.57095596
 H   -0.61123888   -2.43221024   +1.05593928
 H   +0.23360167   -4.58615150   +0.21177205
 H   -1.18139317   -4.16579290   -0.70024791
 H   +0.64337724   -5.04784543   -2.15403573
 H   +0.22789260   -3.40706975   -2.60917110
 H   +1.68280852   -3.71577928   -1.66582336
 H   +0.77077407   +0.65955648   -0.39178714
 H   +1.54402561   -2.79774372   +1.11845470
22
 * E =  +9.024 kcal/mol ; (23) 000_263_131_259
 C   +0.00000000   +0.00000000   +0.00000000
 C   +0.00000000   +0.00000000   +1.51267698
 O   +1.16262168   +0.00000000   +2.16564035
 O   -1.02118041   +0.03173748   +2.13565644
 C   +2.39578158   +0.00029385   +1.47955099
 H   +3.15251892   +0.15201943   +2.23917428
 H   +2.57317818   -0.95468088   +0.98957517
 H   +2.44952592   +0.81009447   +0.75625497
 C   -0.18021714   +1.38794313   -0.52276876
 C   +0.58367744   +1.95354683   -1.46689494
 C   +0.27762788   +3.26915264   -2.10932200
 C   -0.34962137   +3.08692380   -3.48294208
 H   +0.88501018   -0.45941824   -0.42938355
 H   -0.99230286   +1.95408621   -0.08367181
 H   +1.35054928   +1.35102024   -1.94335852
 H   -0.39244169   +3.83653743   -1.46572106
 H   +1.19050502   +3.85454080   -2.20524349
 H   -0.54254128   +4.04893525   -3.95161933
 H   +0.30659905   +2.52257333   -4.14277803
 H   -1.29184094   +2.54894098   -3.41256402
 H   -0.86351263   -0.60162048   -0.27798533
 H   +2.09813545   +2.65329034   -0.35674197
22
 * E =  +9.054 kcal/mol ; (24) 004_083_022_258
 C   +0.00000000   +0.00000000   +0.00000000
 C   +0.00000000   +0.00000000   +1.50615798
 O   +1.17553249   +0.00000000   +2.13868594
 O   -1.00931446   -0.03965879   +2.14867690
 C   +2.39097157   +0.07864171   +1.42750425
 H   +3.17043916   -0.10587350   +2.15606681
 H   +2.44658830   -0.67753855   +0.64835290
 H   +2.53041501   +1.07022730   +1.00173692
 C   +0.16337937   -1.38036876   -0.56426867
 C   -0.10941463   -2.51836968   +0.08877157
 C   -0.11655417   -3.86468864   -0.56187010
 C   -1.53516329   -4.33639123   -0.84286974
 H   -0.95909259   +0.41288571   -0.30594727
 H   +0.51560746   -1.43504336   -1.58690719
 H   -0.54331936   -2.45874945   +1.08141302
 H   +0.45380410   -3.82392824   -1.48884723
 H   +0.38106288   -4.58777136   +0.08198150
 H   -1.53257157   -5.32867600   -1.28765627
 H   -2.12056397   -4.38349292   +0.07291817
 H   -2.04315787   -3.65936687   -1.52537880
 H   +0.77235651   +0.65693425   -0.39354858
 H   +1.59025965   -2.80121244   +1.11499396
22
 * E =  +9.113 kcal/mol ; (25) 003_085_228_138
 C   +0.00000000   +0.00000000   +0.00000000
 C   +0.00000000   +0.00000000   +1.51103260
 O   +1.17226929   +0.00000000   +2.15184697
 O   -1.01200498   -0.03973602   +2.14743652
 C   +2.39403308   +0.05520619   +1.44972682
 H   +3.16675056   -0.09475581   +2.19351862
 H   +2.45878834   -0.72889918   +0.70041475
 H   +2.53685318   +1.02828809   +0.98469789
 C   +0.10998858   -1.39232571   -0.52860588
 C   +0.96852318   -1.76785144   -1.48768461
 C   +1.12273023   -3.17136044   -1.97717083
 C   +1.26210067   -3.29830335   -3.48300403
 H   -0.95882327   +0.42579389   -0.28805129
 H   -0.61294497   -2.10419194   -0.15076873
 H   +1.72601034   -1.06097945   -1.81246530
 H   +2.01694865   -3.58685710   -1.50748456
 H   +0.28513404   -3.77013622   -1.62348988
 H   +1.48148987   -4.32506512   -3.76491311
 H   +0.34885356   -2.99439618   -3.98805458
 H   +2.06919687   -2.67077736   -3.85656003
 H   +0.78713722   +0.62575209   -0.41274197
 H   -0.01341877   -0.93014874   -3.01507459
22
 * E =  +9.333 kcal/mol ; (26) 001_257_131_141
 C   +0.00000000   +0.00000000   +0.00000000
 C   +0.00000000   +0.00000000   +1.51285204
 O   +1.15960157   +0.00000000   +2.17091804
 O   -1.02380728   +0.02504744   +2.13192052
 C   +2.39767740   +0.02511475   +1.49441771
 H   +3.14768728   +0.15646712   +2.26445943
 H   +2.58314142   -0.91349795   +0.97674276
 H   +2.45363084   +0.85738485   +0.79702681
 C   -0.32051003   +1.36409163   -0.51719907
 C   +0.38383697   +2.00288233   -1.46066628
 C   -0.03562337   +3.29275699   -2.08887377
 C   +1.09717156   +4.26844776   -2.34760943
 H   +0.92423307   -0.36733422   -0.43418348
 H   -1.18015015   +1.84626167   -0.06944333
 H   +1.20507244   +1.48003367   -1.94082338
 H   -0.51060707   +3.04987661   -3.04188276
 H   -0.80437799   +3.75924192   -1.47508561
 H   +0.74417935   +5.12920801   -2.91010521
 H   +1.52874957   +4.62600479   -1.41610894
 H   +1.89436055   +3.80033641   -2.92236089
 H   -0.79950446   -0.68531566   -0.27764920
 H   +1.88951660   +2.70087104   -0.27807978
22
 * E =  +9.370 kcal/mol ; (27) 001_085_024_141
 C   +0.00000000   +0.00000000   +0.00000000
 C   +0.00000000   +0.00000000   +1.50637036
 O   +1.17477384   +0.00000000   +2.14000954
 O   -1.01031468   -0.03213150   +2.14803617
 C   +2.39111259   +0.02897603   +1.42677122
 H   +3.16594929   -0.16132782   +2.15883190
 H   +2.42422674   -0.74604441   +0.66464468
 H   +2.55828346   +1.00638053   +0.97878791
 C   +0.12280361   -1.38370249   -0.56791443
 C   -0.23118785   -2.51059962   +0.06440551
 C   -0.28147271   -3.85066090   -0.59562843
 C   +0.21191465   -5.00146729   +0.26130604
 H   -0.94731908   +0.44075572   -0.30400432
 H   +0.50689618   -1.44824746   -1.57823815
 H   -0.69011977   -2.43723937   +1.04495934
 H   -1.32496551   -4.03700827   -0.85869833
 H   +0.26813378   -3.81467095   -1.53539097
 H   +0.02868509   -5.95410925   -0.22968442
 H   +1.27854328   -4.91977160   +0.45527095
 H   -0.29681082   -5.01857587   +1.22303058
 H   +0.79029127   +0.63492492   -0.39311361
 H   +1.43955435   -2.79262736   +1.21924638
22
 * E =  +9.408 kcal/mol ; (28) 355_283_334_017
 C   +0.00000000   +0.00000000   +0.00000000
 C   +0.00000000   +0.00000000   +1.50575759
 O   +1.18018860   +0.00000000   +2.13583104
 O   -1.00407023   +0.03998316   +2.15485566
 C   +2.39186932   -0.10524371   +1.42236378
 H   +3.17720257   +0.05349839   +2.15099491
 H   +2.50730716   -1.09703466   +0.99022148
 H   +2.46358960   +0.65120852   +0.64492253
 C   +0.30017770   +1.35243118   -0.57254102
 C   +0.06732090   +2.51042089   +0.06197670
 C   +0.40364075   +3.86928830   -0.46885898
 C   +0.66521556   +3.93433393   -1.95733177
 H   +0.70880129   -0.73021842   -0.38580963
 H   +0.63331695   +1.36293339   -1.60104270
 H   -0.23903443   +2.47766705   +1.10167712
 H   -0.40507939   +4.55001123   -0.20757875
 H   +1.27648668   +4.23305866   +0.07768317
 H   +0.84580587   +4.95922945   -2.26977138
 H   +1.53749178   +3.34865114   -2.24017560
 H   -0.18866434   +3.55828386   -2.51801389
 H   -0.99371869   -0.32158719   -0.30665166
 H   -1.87455044   +2.60896873   -0.30656211
22
 * E =  +9.476 kcal/mol ; (29) 354_283_337_257
 C   +0.00000000   +0.00000000   +0.00000000
 C   +0.00000000   +0.00000000   +1.50593652
 O   +1.18034853   +0.00000000   +2.13571246
 O   -1.00397342   +0.04080463   +2.15476123
 C   +2.39174329   -0.11783820   +1.42354903
 H   +3.17770202   +0.03839882   +2.15203052
 H   +2.49983572   -1.11262299   +0.99642657
 H   +2.46996419   +0.63449091   +0.64275283
 C   +0.30546708   +1.35047045   -0.57154917
 C   +0.12165031   +2.51360045   +0.06907355
 C   +0.50392827   +3.84331963   -0.49732086
 C   +1.78851537   +4.36847228   +0.12479309
 H   +0.70556488   -0.73325152   -0.38656211
 H   +0.60981879   +1.36713468   -1.61057692
 H   -0.13978062   +2.49781466   +1.12215049
 H   +0.61843065   +3.75924836   -1.57704798
 H   -0.29812865   +4.55797900   -0.32151865
 H   +2.03709965   +5.35151330   -0.26789347
 H   +1.69323567   +4.45678289   +1.20509709
 H   +2.62319472   +3.70213520   -0.08130401
 H   -0.99519703   -0.31704446   -0.30660224
 H   -1.83564451   +2.67420723   -0.16800352
22
 * E =  +9.710 kcal/mol ; (30) 356_282_333_138
 C   +0.00000000   +0.00000000   +0.00000000
 C   +0.00000000   +0.00000000   +1.50583933
 O   +1.18029346   +0.00000000   +2.13557324
 O   -1.00420104   +0.04112193   +2.15463151
 C   +2.39150966   -0.09401534   +1.41994070
 H   +3.17700053   +0.06761294   +2.14775667
 H   +2.51327868   -1.08318892   +0.98351344
 H   +2.45637456   +0.66599966   +0.64528724
 C   +0.28769142   +1.35728717   -0.56645534
 C   +0.01190312   +2.51377993   +0.05358686
 C   +0.35876637   +3.85873859   -0.49781353
 C   -0.73241239   +4.90151927   -0.33844977
 H   +0.71464346   -0.72330149   -0.38716472
 H   +0.65519989   +1.38167689   -1.58442215
 H   -0.31840102   +2.49002810   +1.08714994
 H   +1.25112474   +4.20663371   +0.02703371
 H   +0.63742928   +3.76059458   -1.54625125
 H   -0.37879964   +5.88087610   -0.65140052
 H   -1.60625771   +4.64869289   -0.93335637
 H   -1.05203731   +4.97729522   +0.69888247
 H   -0.99207602   -0.32766540   -0.30626202
 H   -1.96731850   +2.46615490   -0.24958303
22
 * E = +10.314 kcal/mol ; (31) 002_186_308_013
 C   +0.00000000   +0.00000000   +0.00000000
 C   +0.00000000   +0.00000000   +1.51174286
 O   +1.19917137   +0.00000000   +2.11141235
 O   -0.98015122   -0.01918384   +2.19307793
 C   +2.40202035   +0.04408930   +1.38012355
 H   +3.19368440   -0.05059711   +2.11292113
 H   +2.47703942   -0.77688798   +0.67123830
 H   +2.51748272   +0.99135853   +0.85780947
 C   -1.34086018   +0.13528987   -0.64008798
 C   -2.39411100   -0.63493870   -0.34610887
 C   -3.75642733   -0.50253190   -0.94567381
 C   -3.84499790   +0.38034022   -2.17069953
 H   +0.66209202   +0.79128467   -0.34535381
 H   -1.41624847   +0.86083345   -1.43717628
 H   -2.31536469   -1.31229502   +0.49371370
 H   -4.12651532   -1.49983325   -1.18237231
 H   -4.42167257   -0.12429165   -0.16691738
 H   -4.85738610   +0.38729499   -2.56558536
 H   -3.57535915   +1.40948351   -1.94295345
 H   -3.18148093   +0.02499371   -2.95724659
 H   +0.47481123   -0.93241828   -0.31983256
 H   -1.73702309   -2.24455389   -1.43581252
