21
 * E =  +0.000 kcal/mol ; (1) 180_187_272_182
 C   +0.00000000   +0.00000000   +0.00000000
 O   +0.00000000   +0.00000000   +1.41440177
 C   +1.20671443   +0.00000000   +1.98468104
 C   +1.09155610   -0.01108347   +3.44640600
 C   +2.12178034   +0.12095527   +4.28217351
 C   +3.56111906   +0.28799706   +3.94005452
 C   +4.26380312   -1.05807861   +3.78355986
 C   +5.73899015   -0.89539307   +3.48242915
 O   +2.22588113   -0.00123465   +1.33985011
 H   +5.88613424   -0.33705035   +2.56013725
 H   +0.51430339   -0.87767585   -0.37952550
 H   +6.22716998   -1.86028545   +3.36794355
 H   +6.24857177   -0.35849428   +4.28105902
 H   +3.77677524   -1.60302933   +2.97701000
 H   +4.13237259   -1.64823370   +4.69112052
 H   +4.04762992   +0.85414263   +4.73426209
 H   +3.66753387   +0.84335665   +3.01298101
 H   +1.88618386   +0.07663115   +5.33858428
 H   +0.09097338   -0.13022747   +3.83108149
 H   -1.04082880   -0.00976278   -0.29662228
 H   +0.49694079   +0.88742524   -0.37988548
21
 * E =  +0.066 kcal/mol ; (2) 180_181_124_177
 C   +0.00000000   +0.00000000   +0.00000000
 O   +0.00000000   +0.00000000   +1.41424862
 C   +1.20760109   +0.00000000   +1.98468520
 C   +1.07670134   +0.00114559   +3.44723565
 C   +2.08606051   +0.01292617   +4.31733306
 C   +3.54913232   +0.03426491   +4.06076637
 C   +4.22338450   +1.21743193   +4.74445188
 C   +5.72651742   +1.20344519   +4.55717267
 O   +2.22360908   +0.00038198   +1.33623406
 H   +6.16527890   +0.29973292   +4.97682140
 H   +0.50785536   -0.88133891   -0.37965419
 H   +6.19450427   +2.05615853   +5.04305719
 H   +5.98819673   +1.23701258   +3.50153010
 H   +3.98426303   +1.21023734   +5.80903417
 H   +3.81003086   +2.14226268   +4.34296485
 H   +3.75334608   +0.04092162   +2.99643563
 H   +3.97229598   -0.88736947   +4.46958155
 H   +1.80746755   +0.01850207   +5.36573775
 H   +0.06002188   -0.00572917   +3.80773835
 H   -1.04090225   -0.00234070   -0.29657128
 H   +0.50367867   +0.88372629   -0.37969844
21
 * E =  +0.129 kcal/mol ; (3) 180_184_253_068
 C   +0.00000000   +0.00000000   +0.00000000
 O   +0.00000000   +0.00000000   +1.41432202
 C   +1.20729987   +0.00000000   +1.98479097
 C   +1.07995793   -0.01168584   +3.44730868
 C   +2.09393533   +0.06386122   +4.30898348
 C   +3.55172626   +0.17146788   +4.03530653
 C   +4.27974393   -1.13888396   +4.33846148
 C   +3.90620137   -2.25632480   +3.38597834
 O   +2.22421549   -0.00062299   +1.33754285
 H   +2.84222984   -2.47935778   +3.43683961
 H   +0.51468333   -0.87747468   -0.37942619
 H   +4.44887723   -3.16914104   +3.62075019
 H   +4.13018546   -1.97942448   +2.35852894
 H   +4.07618481   -1.44091952   +5.36716511
 H   +5.35102541   -0.95067156   +4.28159860
 H   +3.95461510   +0.95237551   +4.68123950
 H   +3.72917332   +0.45738972   +3.00472235
 H   +1.82677204   +0.02302060   +5.35920418
 H   +0.06801121   -0.08754111   +3.81338944
 H   -1.04084991   -0.01020629   -0.29658611
 H   +0.49665019   +0.88759176   -0.37990147
21
 * E =  +0.573 kcal/mol ; (4) 180_186_273_300
 C   +0.00000000   +0.00000000   +0.00000000
 O   +0.00000000   +0.00000000   +1.41441201
 C   +1.20704485   +0.00000000   +1.98426055
 C   +1.09191593   -0.00833021   +3.44615356
 C   +2.12266332   +0.11108937   +4.28343972
 C   +3.56595400   +0.26218301   +3.94095314
 C   +4.26015873   -1.08518572   +3.74653051
 C   +4.21938943   -1.97166268   +4.97513559
 O   +2.22583752   -0.00052915   +1.33912664
 H   +4.67120506   -1.47686434   +5.83412317
 H   +0.51640919   -0.87646736   -0.37945204
 H   +4.76054890   -2.89979224   +4.80777550
 H   +3.19750915   -2.23408813   +5.24316117
 H   +5.29510518   -0.89445448   +3.46542547
 H   +3.79597525   -1.58815614   +2.90025327
 H   +4.05859808   +0.80259161   +4.74928920
 H   +3.67175472   +0.84169022   +3.02951282
 H   +1.88057317   +0.07867775   +5.33843165
 H   +0.08908724   -0.11010795   +3.83017017
 H   -1.04077885   -0.01206273   -0.29670006
 H   +0.49505386   +0.88849763   -0.37986921
21
 * E =  +1.652 kcal/mol ; (5) 180_350_091_177
 C   +0.00000000   +0.00000000   +0.00000000
 O   +0.00000000   +0.00000000   +1.41631224
 C   +1.20947527   +0.00000000   +1.97946194
 C   +1.20390116   -0.00788560   +3.44763954
 C   +0.17365943   +0.15924174   +4.27691696
 C   -1.26647963   +0.38738969   +3.97032791
 C   -2.03959133   -0.92511489   +3.88004971
 C   -3.51900521   -0.70078486   +3.64570421
 O   +2.22288474   -0.01169964   +1.32834119
 H   -3.96390089   -0.12632234   +4.45647422
 H   +0.50250326   -0.88460858   -0.37850271
 H   -4.05574045   -1.64374925   +3.57492043
 H   -3.68888607   -0.15180435   +2.72124185
 H   -1.89272256   -1.49884099   +4.79553176
 H   -1.61598303   -1.51631071   +3.06975383
 H   -1.38338929   +0.93227272   +3.03898380
 H   -1.69609804   +0.99622133   +4.76607445
 H   +0.41446458   +0.09796722   +5.33160880
 H   +2.19146449   -0.16276715   +3.85296232
 H   -1.04125568   +0.00294491   -0.29595130
 H   +0.50855092   +0.88043777   -0.38004699
21
 * E =  +1.693 kcal/mol ; (6) 180_000_180_180
 C   +0.00000000   +0.00000000   +0.00000000
 O   +0.00000000   +0.00000000   +1.41597854
 C   +1.20980877   +0.00000000   +1.97874561
 C   +1.18955968   -0.00000441   +3.44455323
 C   +0.12278315   -0.00001058   +4.24338849
 C   -1.32805792   -0.00001470   +3.89067515
 C   -2.22560181   -0.00004261   +5.11413314
 C   -3.69604633   -0.00004673   +4.75294698
 O   +2.22501625   -0.00000374   +1.33001046
 H   -3.95444543   +0.87809567   +4.16367364
 H   +0.50578696   -0.88242400   -0.37928446
 H   -4.32448208   -0.00006677   +5.63997541
 H   -3.95443293   -0.87817216   +4.16364286
 H   -1.99796066   +0.87259081   +5.72780998
 H   -1.99794824   -0.87269446   +5.72777913
 H   -1.54816323   -0.86415312   +3.26346958
 H   -1.54817450   +0.86414448   +3.26350165
 H   +0.33677081   -0.00001296   +5.30650623
 H   +2.17931114   -0.00000215   +3.87255716
 H   -1.04115806   +0.00000112   -0.29626860
 H   +0.50578892   +0.88242290   -0.37928435
21
 * E =  +1.814 kcal/mol ; (7) 180_006_251_068
 C   +0.00000000   +0.00000000   +0.00000000
 O   +0.00000000   +0.00000000   +1.41628320
 C   +1.20859686   +0.00000000   +1.97894888
 C   +1.21857328   +0.00881609   +3.44805382
 C   +0.20271262   -0.09004813   +4.30554660
 C   -1.26035851   -0.23353964   +4.07471478
 C   -2.01518896   +1.04075272   +4.45344037
 C   -1.71319219   +2.20262806   +3.52947161
 O   +2.22110248   +0.00626773   +1.32588723
 H   -0.65242098   +2.44503945   +3.53422383
 H   +0.50599877   -0.88190482   -0.37999865
 H   -2.26092134   +3.09393992   +3.82608794
 H   -1.98695216   +1.96331202   +2.50409114
 H   -1.77591789   +1.31247635   +5.48258702
 H   -3.08232667   +0.82337280   +4.43520108
 H   -1.61386104   -1.04874911   +4.70728982
 H   -1.47521873   -0.49529904   +3.04537476
 H   +0.48069656   -0.04324239   +5.35306191
 H   +2.22188607   +0.10445693   +3.83312534
 H   -1.04139586   -0.00080044   -0.29562350
 H   +0.50435584   +0.88332013   -0.37886809
21
 * E =  +2.190 kcal/mol ; (8) 180_352_090_059
 C   +0.00000000   +0.00000000   +0.00000000
 O   +0.00000000   +0.00000000   +1.41628512
 C   +1.20873137   +0.00000000   +1.98020899
 C   +1.20230568   -0.00136735   +3.44843290
 C   +0.16808098   +0.14305023   +4.27757360
 C   -1.27856276   +0.33608035   +3.96666296
 C   -2.02861794   -0.98945058   +3.84223600
 C   -1.97712994   -1.83693240   +5.09770719
 O   +2.22293303   -0.01216865   +1.33020147
 H   -0.95744108   -2.13258704   +5.33667332
 H   +0.50117338   -0.88527327   -0.37868629
 H   -2.56144662   -2.74636526   +4.98125384
 H   -2.37601615   -1.29589028   +5.95481986
 H   -1.61234383   -1.54136570   +3.00094483
 H   -3.06588524   -0.77013367   +3.59104995
 H   -1.39757601   +0.89775806   +3.04636625
 H   -1.72507417   +0.91838984   +4.77294411
 H   +0.41497717   +0.09934423   +5.33129660
 H   +2.19373727   -0.12792248   +3.85430376
 H   -1.04129918   +0.00458619   -0.29573993
 H   +0.50975465   +0.87982331   -0.37989041
21
 * E =  +8.599 kcal/mol ; (9) 352_159_093_178
 C   +0.00000000   +0.00000000   +0.00000000
 O   +0.00000000   +0.00000000   +1.40875134
 C   +1.14250994   +0.00000000   +2.10937068
 C   +2.40217291   -0.18331423   +1.36619110
 C   +3.59159918   +0.19029658   +1.84140557
 C   +3.89451921   +0.84817146   +3.14000982
 C   +4.23819897   -0.17779657   +4.21723023
 C   +4.60206463   +0.48324402   +5.53025842
 O   +1.08145168   +0.12887004   +3.30191615
 H   +5.46692892   +1.13558408   +5.41915718
 H   +0.29355903   -0.96935124   -0.39778173
 H   +4.84031063   -0.25671488   +6.29050044
 H   +3.77575804   +1.08586097   +5.90157706
 H   +5.06253116   -0.80557370   +3.87674479
 H   +3.37466863   -0.82586891   +4.35146908
 H   +3.04569308   +1.43439857   +3.47934081
 H   +4.74252226   +1.51975634   +3.00287689
 H   +4.44682513   -0.02942773   +1.21327001
 H   +2.35784615   -0.65416889   +0.39698930
 H   -1.02208500   +0.20440851   -0.29461122
 H   +0.64940269   +0.77490244   -0.39995146
21
 * E =  +8.941 kcal/mol ; (10) 009_204_248_067
 C   +0.00000000   +0.00000000   +0.00000000
 O   +0.00000000   +0.00000000   +1.40893692
 C   +1.14248783   +0.00000000   +2.11040969
 C   +2.39770103   +0.19859943   +1.36014892
 C   +3.59229194   -0.21850690   +1.78075914
 C   +3.94095980   -0.97217681   +3.01336435
 C   +4.74571441   -0.11204330   +3.98812853
 C   +3.94139141   +1.03105659   +4.57217562
 O   +1.08080812   -0.13628585   +3.30121592
 H   +3.57783932   +1.69719887   +3.79218523
 H   +0.66512399   -0.76119250   -0.40025605
 H   +4.54268275   +1.61835053   +5.26241703
 H   +3.06869011   +0.65927825   +5.10237582
 H   +5.63392161   +0.27308647   +3.48408439
 H   +5.10534868   -0.75698263   +4.78870135
 H   +4.55150933   -1.82645714   +2.71701177
 H   +3.04877056   -1.34324635   +3.50599855
 H   +4.43390810   +0.02263689   +1.14039854
 H   +2.33922547   +0.72109437   +0.41802206
 H   -1.01781586   -0.22484707   -0.29466101
 H   +0.27384960   +0.97522540   -0.39750585
21
 * E =  +9.248 kcal/mol ; (11) 352_159_092_060
 C   +0.00000000   +0.00000000   +0.00000000
 O   +0.00000000   +0.00000000   +1.40876002
 C   +1.14221067   +0.00000000   +2.10992395
 C   +2.40255141   -0.18226544   +1.36768334
 C   +3.59116380   +0.19392322   +1.84352581
 C   +3.88796435   +0.85906154   +3.14233140
 C   +4.19817532   -0.14904218   +4.24880051
 C   +5.38979223   -1.03656803   +3.94958513
 O   +1.08095187   +0.13098612   +3.30215224
 H   +5.21253440   -1.66489436   +3.07847356
 H   +0.29345667   -0.96934437   -0.39785353
 H   +5.60497119   -1.69681201   +4.78618526
 H   +6.28525072   -0.44650577   +3.75699522
 H   +3.30610460   -0.74886759   +4.41560316
 H   +4.37761974   +0.40773842   +5.16754691
 H   +3.04237469   +1.46393777   +3.45446138
 H   +4.74891310   +1.51402010   +3.00498890
 H   +4.44395724   -0.01766404   +1.21012052
 H   +2.35915445   -0.64897006   +0.39637964
 H   -1.02207322   +0.20452477   -0.29457147
 H   +0.64931511   +0.77493613   -0.40004082
