21
 * E =  +0.000 kcal/mol ; (1) 180_180_000_180
 C   +0.00000000   +0.00000000   +0.00000000
 O   +0.00000000   +0.00000000   +1.41474246
 C   +1.20631356   +0.00000000   +1.98368161
 C   +1.10507772   +0.00000000   +3.44797318
 C   +2.20891077   +0.00000152   +4.18774133
 C   +2.27337561   +0.00000174   +5.67200412
 C   +0.94447713   +0.00000006   +6.39773451
 C   +1.11367790   +0.00000042   +7.90342365
 O   +2.22762637   +0.00000215   +1.34484409
 H   +0.15209809   -0.00000080   +8.41028013
 H   +0.50594186   +0.88254331   -0.37929016
 H   +1.66328931   +0.87840792   +8.23711429
 H   +1.66329162   -0.87840559   +8.23711445
 H   +0.36702786   -0.87304392   +6.09286878
 H   +0.36702555   +0.87304246   +6.09286866
 H   +2.86483591   +0.86517350   +5.98311384
 H   +2.86483828   -0.86516831   +5.98311407
 H   +3.15248096   +0.00000271   +3.65522095
 H   +0.11247600   -0.00000127   +3.86971097
 H   +0.50594270   -0.88254283   -0.37929014
 H   -1.04081228   -0.00000048   -0.29702688
21
 * E =  +0.058 kcal/mol ; (2) 180_180_121_178
 C   +0.00000000   +0.00000000   +0.00000000
 O   +0.00000000   +0.00000000   +1.41484429
 C   +1.20626707   +0.00000000   +1.98338890
 C   +1.10623981   +0.00000000   +3.44795407
 C   +2.20425296   -0.00011447   +4.19518269
 C   +2.23303326   -0.00818482   +5.67886916
 C   +2.98106785   -1.21005269   +6.24160539
 C   +3.05344880   -1.18516055   +7.75441860
 O   +2.22793506   -0.00015407   +1.34538790
 H   +3.58690396   -2.05065352   +8.13928100
 H   +0.50256037   +0.88456297   -0.37907802
 H   +2.05813590   -1.18702475   +8.19513779
 H   +3.56857849   -0.29366851   +8.10793694
 H   +3.98776323   -1.23354488   +5.82371982
 H   +2.48966341   -2.12321844   +5.90739527
 H   +1.21782957   +0.01747279   +6.07376734
 H   +2.72975607   +0.90197184   +6.02371648
 H   +3.15627814   -0.00470878   +3.67621667
 H   +0.11487258   +0.00160601   +3.87541101
 H   +0.50945175   -0.88058587   -0.37908118
 H   -1.04077108   -0.00385343   -0.29701565
21
 * E =  +0.218 kcal/mol ; (3) 180_180_123_295
 C   +0.00000000   +0.00000000   +0.00000000
 O   +0.00000000   +0.00000000   +1.41484609
 C   +1.20614536   +0.00000000   +1.98350276
 C   +1.10630987   +0.00001337   +3.44814636
 C   +2.20479505   +0.00575178   +4.19462588
 C   +2.24021477   +0.00918238   +5.67903123
 C   +3.03013960   -1.16480022   +6.24912871
 C   +2.40081797   -2.50799820   +5.94102187
 O   +2.22793972   -0.00093228   +1.34557824
 H   +2.97807905   -3.32176630   +6.37284709
 H   +0.50817655   +0.88132805   -0.37906932
 H   +2.33549923   -2.67761899   +4.86841511
 H   +1.39088168   -2.56667718   +6.34391542
 H   +3.11387338   -1.03466281   +7.32714782
 H   +4.04716274   -1.13428101   +5.85680569
 H   +1.22533443   +0.00419298   +6.07611305
 H   +2.70726334   +0.93925026   +6.00843039
 H   +3.15639899   +0.00399817   +3.67395111
 H   +0.11523059   -0.00268435   +3.87610833
 H   +0.50372929   -0.88384712   -0.37917928
 H   -1.04078540   +0.00255671   -0.29697446
21
 * E =  +0.681 kcal/mol ; (4) 180_000_000_180
 C   +0.00000000   +0.00000000   +0.00000000
 O   +0.00000000   +0.00000000   +1.41470066
 C   +1.20858345   +0.00000000   +1.98042974
 C   +1.17517000   +0.00000000   +3.44654606
 C   +0.05199259   +0.00000000   +4.15783458
 C   -0.03912335   +0.00000000   +5.64217623
 C   +1.27566185   +0.00000000   +6.39306484
 C   +1.07643687   +0.00000000   +7.89506427
 O   +2.22595716   -0.00000000   +1.33530658
 H   +2.02787288   +0.00000000   +8.42060291
 H   +0.50528250   +0.88255368   -0.37999247
 H   +0.52046476   -0.87846650   +8.21795465
 H   +0.52046476   +0.87846650   +8.21795465
 H   +1.85908991   +0.87293606   +6.09981972
 H   +1.85908988   -0.87293607   +6.09981972
 H   -0.63574918   -0.86540247   +5.94270444
 H   -0.63574919   +0.86540247   +5.94270443
 H   -0.88626743   +0.00000000   +3.61841849
 H   +2.15194583   +0.00000000   +3.90361712
 H   +0.50527860   -0.88255596   -0.37999242
 H   -1.04110266   +0.00000220   -0.29645014
21
 * E =  +0.697 kcal/mol ; (5) 180_000_121_178
 C   +0.00000000   +0.00000000   +0.00000000
 O   +0.00000000   +0.00000000   +1.41478894
 C   +1.20807842   +0.00000000   +1.98088383
 C   +1.17154285   +0.00121823   +3.44723038
 C   +0.05239175   +0.00496476   +4.16369945
 C   -0.00445367   +0.01526080   +5.64770552
 C   -0.75425325   +1.22295397   +6.19503409
 C   -0.85452114   +1.20129824   +7.70632584
 O   +2.22646629   -0.00095005   +1.33763170
 H   -1.38885673   +2.07113038   +8.08001811
 H   +0.50202295   +0.88438805   -0.38006332
 H   +0.13259819   +1.19718388   +8.16492296
 H   -1.38201080   +0.31393965   +8.05193759
 H   -1.75335942   +1.25289963   +5.75921659
 H   -0.25035802   +2.13206517   +5.86841734
 H   +1.00359072   -0.01576154   +6.05992430
 H   -0.51227586   -0.89137359   +5.98556491
 H   -0.89337248   +0.01167093   +3.63574894
 H   +2.14614065   -0.00218145   +3.91162424
 H   +0.50811260   -0.88089496   -0.38001714
 H   -1.04110648   -0.00343912   -0.29632003
21
 * E =  +0.710 kcal/mol ; (6) 180_180_119_063
 C   +0.00000000   +0.00000000   +0.00000000
 O   +0.00000000   +0.00000000   +1.41482675
 C   +1.20619226   +0.00000000   +1.98337247
 C   +1.10662474   -0.00047739   +3.44805621
 C   +2.20537950   +0.00094016   +4.19466123
 C   +2.22524240   -0.00647992   +5.67963017
 C   +2.91747064   -1.23308378   +6.26981794
 C   +4.38793785   -1.33797254   +5.91639456
 O   +2.22789048   -0.00013490   +1.34528207
 H   +4.84811355   -2.18642689   +6.41660376
 H   +0.50577831   +0.88270963   -0.37907993
 H   +4.92856145   -0.44278691   +6.22024745
 H   +4.54028983   -1.47049612   +4.84785795
 H   +2.39277219   -2.12951885   +5.94049884
 H   +2.80834476   -1.19216668   +7.35291640
 H   +1.20673051   +0.05938617   +6.05824455
 H   +2.75239463   +0.88635531   +6.02444507
 H   +3.15385837   +0.00491452   +3.67131937
 H   +0.11520494   -0.00035186   +3.87563965
 H   +0.50622096   -0.88244603   -0.37911039
 H   -1.04077919   -0.00024372   -0.29701960
21
 * E =  +0.848 kcal/mol ; (7) 180_180_351_288
 C   +0.00000000   +0.00000000   +0.00000000
 O   +0.00000000   +0.00000000   +1.41475935
 C   +1.20658598   +0.00000000   +1.98344838
 C   +1.10565800   -0.00100163   +3.44758027
 C   +2.21033596   -0.00650134   +4.18587691
 C   +2.29423251   -0.04176992   +5.67100221
 C   +0.99350349   +0.13385498   +6.43333766
 C   +0.44922579   +1.54911392   +6.38020613
 O   +2.22768683   +0.00120827   +1.34426891
 H   -0.48643523   +1.63167777   +6.92783853
 H   +0.50838250   +0.88113782   -0.37923915
 H   +0.26750718   +1.87506513   +5.35916633
 H   +1.15461776   +2.24885361   +6.82516827
 H   +1.16568525   -0.14217341   +7.47262176
 H   +0.25183284   -0.57130336   +6.05722726
 H   +3.01204242   +0.71824423   +5.98848040
 H   +2.75947470   -0.99325876   +5.94013058
 H   +3.15029065   -0.00820203   +3.64667406
 H   +0.11237508   +0.00149501   +3.86816300
 H   +0.50350294   -0.88394877   -0.37926254
 H   -1.04080965   +0.00271626   -0.29700890
21
 * E =  +0.872 kcal/mol ; (8) 180_000_123_295
 C   +0.00000000   +0.00000000   +0.00000000
 O   +0.00000000   +0.00000000   +1.41483589
 C   +1.20805937   +0.00000000   +1.98119734
 C   +1.17104457   +0.00007778   +3.44758115
 C   +0.05146345   -0.00347590   +4.16336324
 C   -0.01158359   -0.00696213   +5.64802154
 C   -0.80333004   +1.17212745   +6.20464757
 C   -0.15770742   +2.51102144   +5.91189184
 O   +2.22648042   +0.00063446   +1.33805069
 H   -0.73805583   +3.32866035   +6.33213622
 H   +0.50471418   +0.88283468   -0.38008443
 H   -0.06691987   +2.68139628   +4.84125781
 H   +0.84359904   +2.56169769   +6.33650729
 H   -0.90939999   +1.04092001   +7.28056045
 H   -1.81310857   +1.15020423   +5.79298480
 H   +0.99642384   -0.00825177   +6.06202209
 H   -0.48956375   -0.93422310   +5.96947919
 H   -0.89399447   +0.00038430   +3.63397373
 H   +2.14531748   +0.00097875   +3.91253844
 H   +0.50544455   -0.88245122   -0.37998179
 H   -1.04111089   -0.00050103   -0.29631611
21
 * E =  +1.362 kcal/mol ; (9) 180_000_241_297
 C   +0.00000000   +0.00000000   +0.00000000
 O   +0.00000000   +0.00000000   +1.41481037
 C   +1.20815127   +0.00000000   +1.98098548
 C   +1.17156481   +0.00022204   +3.44742127
 C   +0.05197449   -0.00016513   +4.16373357
 C   +0.00495616   -0.00675731   +5.64929142
 C   -0.68776306   -1.23799008   +6.22860226
 C   -2.15038095   -1.35642035   +5.84783450
 O   +2.22646861   -0.00038827   +1.33765533
 H   -2.61315964   -2.20711218   +6.34178317
 H   +0.50736267   +0.88134090   -0.37999809
 H   -2.28113949   -1.49409214   +4.77691221
 H   -2.70430663   -0.46484422   +6.13819644
 H   -0.60004915   -1.19433972   +7.31350164
 H   -0.14920813   -2.13048090   +5.91125759
 H   -0.53379750   +0.88274311   +5.98466223
 H   +1.01646830   +0.06642364   +6.04469295
 H   -0.89046920   +0.00160824   +3.63199360
 H   +2.14640254   +0.00217313   +3.91155040
 H   +0.50279138   -0.88394410   -0.38008366
 H   -1.04110182   +0.00264322   -0.29634944
21
 * E =  +1.539 kcal/mol ; (10) 180_000_009_072
 C   +0.00000000   +0.00000000   +0.00000000
 O   +0.00000000   +0.00000000   +1.41470404
 C   +1.20837549   +0.00000000   +1.98077621
 C   +1.17541349   +0.00060224   +3.44673072
 C   +0.05275982   -0.00719748   +4.15850699
 C   -0.05325208   -0.04088836   +5.64386934
 C   +1.23452352   +0.14203391   +6.42609348
 C   +1.77460447   +1.55904229   +6.37727660
 O   +2.22600343   -0.00023498   +1.33591381
 H   +2.70023862   +1.64652110   +6.94080892
 H   +0.50153961   -0.88464983   -0.38009690
 H   +1.05910636   +2.25772266   +6.80762743
 H   +1.97374833   +1.88224230   +5.35868853
 H   +1.98478546   -0.56196019   +6.06541358
 H   +1.04569288   -0.13113244   +7.46321505
 H   -0.51780713   -0.99411117   +5.90803003
 H   -0.77857718   +0.71695679   +5.94934698
 H   -0.88332124   -0.01230723   +3.61522911
 H   +2.15326987   +0.00668588   +3.90197365
 H   -1.04112561   +0.00406997   -0.29633941
 H   +0.50871276   +0.88055086   -0.38001623
21
 * E =  +8.964 kcal/mol ; (11) 000_180_000_180
 C   +0.00000000   +0.00000000   +0.00000000
 O   +0.00000000   +0.00000000   +1.40769004
 C   +1.13748594   +0.00000000   +2.11638522
 C   +2.41952611   +0.00000402   +1.38271830
 C   +3.55467747   +0.00000805   +2.07652594
 C   +4.92936891   +0.00001244   +1.51537693
 C   +5.04114514   +0.00001229   +0.00538865
 C   +6.48240547   +0.00001693   -0.46222987
 O   +1.06381755   +0.00000387   +3.31409308
 H   +6.54742831   +0.00001678   -1.54721192
 H   +0.47891827   +0.89059402   -0.40098412
 H   +7.01284651   -0.87833899   -0.09908639
 H   +7.01284067   +0.87837663   -0.09908700
 H   +4.52593714   +0.87379904   -0.39485136
 H   +4.52594297   -0.87377818   -0.39485073
 H   +5.45776028   -0.86460877   +1.92571166
 H   +5.45775445   +0.86463749   +1.92571105
 H   +3.46376549   +0.00000811   +3.15577805
 H   +2.42876329   +0.00000368   +0.30563074
 H   +0.47891786   -0.89059427   -0.40098406
 H   -1.04281689   +0.00000022   -0.29247995
21
 * E =  +9.039 kcal/mol ; (12) 000_179_122_178
 C   +0.00000000   +0.00000000   +0.00000000
 O   +0.00000000   +0.00000000   +1.40785293
 C   +1.13714220   +0.00000000   +2.11652777
 C   +2.42020767   -0.00582357   +1.38442747
 C   +3.55929701   +0.00450400   +2.07051277
 C   +4.91873310   +0.00742452   +1.47714630
 C   +5.74166204   +1.21379278   +1.91207163
 C   +7.14734704   +1.18287185   +1.34869920
 O   +1.06462799   +0.00490205   +3.31419072
 H   +7.71900371   +2.05145452   +1.66549582
 H   +0.48403701   +0.88783088   -0.40083240
 H   +7.13453979   +1.17423346   +0.26026420
 H   +7.68293761   +0.29466353   +1.67913880
 H   +5.78013492   +1.24727278   +3.00092559
 H   +5.23363710   +2.12426712   +1.59586054
 H   +4.85699193   -0.02971438   +0.38971583
 H   +5.43868231   -0.89930201   +1.79579807
 H   +3.48307505   +0.02150173   +3.15159512
 H   +2.43547341   -0.01989518   +0.30622358
 H   +0.47350676   -0.89348125   -0.40093347
 H   -1.04279873   +0.00606160   -0.29237852
21
 * E =  +9.175 kcal/mol ; (13) 000_181_123_296
 C   +0.00000000   +0.00000000   +0.00000000
 O   +0.00000000   +0.00000000   +1.40794454
 C   +1.13705549   +0.00000000   +2.11650633
 C   +2.42013428   +0.01074291   +1.38439920
 C   +3.55898806   -0.00442159   +2.07069503
 C   +4.92143211   +0.00259341   +1.48220151
 C   +5.76837617   +1.16841195   +1.98373882
 C   +5.22332643   +2.51912254   +1.56712647
 O   +1.06464080   -0.00688276   +3.31424363
 H   +5.85756792   +3.32651339   +1.92425214
 H   +0.46922156   +0.89581609   -0.40077206
 H   +4.22301483   +2.68174656   +1.96277899
 H   +5.16482542   +2.59820190   +0.48254289
 H   +6.78237980   +1.04624460   +1.60599557
 H   +5.83751575   +1.11682069   +3.07061209
 H   +4.86073931   +0.02598291   +0.39413447
 H   +5.41529014   -0.93205013   +1.75467826
 H   +3.48160527   -0.01900200   +3.15215975
 H   +2.43562644   +0.03002226   +0.30632660
 H   +0.48835649   -0.88540177   -0.40089748
 H   -1.04276376   -0.01102498   -0.29233466
21
 * E =  +9.689 kcal/mol ; (14) 000_180_119_063
 C   +0.00000000   +0.00000000   +0.00000000
 O   +0.00000000   +0.00000000   +1.40788579
 C   +1.13701608   +0.00000000   +2.11662613
 C   +2.42052124   +0.00458983   +1.38505746
 C   +3.55941322   +0.00048876   +2.07201263
 C   +4.91623392   +0.01187921   +1.47013299
 C   +5.74406056   +1.23208385   +1.86895443
 C   +6.03499592   +1.31844530   +3.35421001
 O   +1.06420936   -0.00277237   +3.31435950
 H   +6.68595015   +2.16104301   +3.57318966
 H   +0.47657174   +0.89182860   -0.40091874
 H   +6.53178718   +0.41674657   +3.70908706
 H   +5.12802827   +1.44962455   +3.93946428
 H   +5.22907974   +2.13411866   +1.53952311
 H   +6.68303937   +1.19448485   +1.31811771
 H   +4.83813735   -0.04230502   +0.38546438
 H   +5.44658557   -0.88568213   +1.79735224
 H   +3.47816016   -0.00901131   +3.15181514
 H   +2.43614392   +0.01019602   +0.30667817
 H   +0.48077022   -0.88953733   -0.40094279
 H   -1.04284183   -0.00243612   -0.29228105
21
 * E =  +9.870 kcal/mol ; (15) 001_182_009_072
 C   +0.00000000   +0.00000000   +0.00000000
 O   +0.00000000   +0.00000000   +1.40763763
 C   +1.13734621   +0.00000000   +2.11675793
 C   +2.41925098   +0.01521380   +1.38326080
 C   +3.55404142   -0.01727703   +2.07668371
 C   +4.93669932   -0.04215368   +1.52938777
 C   +5.08971355   +0.17281868   +0.03479543
 C   +4.82151293   +1.60155984   -0.40001867
 O   +1.06318216   -0.01173564   +3.31436739
 H   +4.92351292   +1.71185341   -1.47687915
 H   +0.46479162   +0.89801678   -0.40125062
 H   +5.52736554   +2.28442401   +0.06927035
 H   +3.82235781   +1.92905349   -0.12311968
 H   +4.43756514   -0.51668849   -0.50249709
 H   +6.10515388   -0.09974245   -0.24844343
 H   +5.37194181   -1.00272254   +1.81593308
 H   +5.52704181   +0.70102399   +2.07051690
 H   +3.45709152   -0.05171704   +3.15501294
 H   +2.42658998   +0.05135147   +0.30654224
 H   +0.49259998   -0.88301140   -0.40110464
 H   -1.04269928   -0.01586135   -0.29248552
