22
 * E =  +0.000 kcal/mol ; (1) 180_181_115_289
 C   +0.00000000   +0.00000000   +0.00000000
 O   +0.00000000   +0.00000000   +1.41524878
 C   +1.20537361   +0.00000000   +1.98380562
 C   +1.10523133   +0.00076727   +3.44898739
 C   +2.20515504   +0.01474628   +4.19354421
 C   +2.23520419   -0.00030214   +5.68064142
 C   +2.87317846   -1.26644942   +6.19829895
 C   +2.08819957   -2.53094026   +6.03630939
 O   +2.22828927   -0.00095590   +1.34800003
 H   +2.58342764   -3.36801163   +6.52128079
 H   +0.50822334   +0.88138390   -0.37869853
 H   +1.96450817   -2.78300240   +4.98245059
 H   +1.09319656   -2.43019338   +6.46631516
 H   +2.96652746   -1.06660587   +7.50756946
 H   +3.92160075   -1.35914785   +5.92571548
 H   +1.22514146   +0.09359005   +6.07768576
 H   +2.80700875   +0.85871829   +6.03461256
 H   +3.15693772   +0.01633268   +3.67481905
 H   +0.11454753   -0.00202212   +3.87786948
 H   +0.50367996   -0.88397597   -0.37882108
 H   -1.04077842   +0.00264292   -0.29673807
 H   +2.99404121   -0.90580708   +8.42814281
22
 * E =  +0.254 kcal/mol ; (2) 180_179_242_291
 C   +0.00000000   +0.00000000   +0.00000000
 O   +0.00000000   +0.00000000   +1.41523103
 C   +1.20538366   +0.00000000   +1.98351991
 C   +1.10595855   +0.00054276   +3.44865152
 C   +2.20657313   -0.01150087   +4.19225040
 C   +2.23158167   +0.00064343   +5.67963865
 C   +2.91466544   +1.23561971   +6.21450035
 C   +4.39383602   +1.34812970   +6.00650244
 O   +2.22818435   -0.00030210   +1.34735064
 H   +4.80254930   +2.19587841   +6.55041753
 H   +0.50882236   +0.88107231   -0.37865515
 H   +4.63977663   +1.49022270   +4.95354062
 H   +4.90649009   +0.44999177   +6.34631181
 H   +2.75366776   +1.14203171   +7.52535820
 H   +2.36796002   +2.14888938   +5.99503203
 H   +2.77122645   -0.87987492   +6.03483233
 H   +1.21661466   -0.06225153   +6.06785061
 H   +3.15599196   -0.01898995   +3.67049304
 H   +0.11544213   +0.00537838   +3.87807190
 H   +0.50326124   -0.88426644   -0.37866976
 H   -1.04076409   +0.00311595   -0.29678045
 H   +2.65662992   +1.03181912   +8.45226255
22
 * E =  +0.276 kcal/mol ; (3) 180_180_355_178
 C   +0.00000000   +0.00000000   +0.00000000
 O   +0.00000000   +0.00000000   +1.41497218
 C   +1.20564443   +0.00000000   +1.98312255
 C   +1.10558619   -0.00334677   +3.44831713
 C   +2.21242712   -0.00534742   +4.18224872
 C   +2.28786767   -0.00987499   +5.66690204
 C   +0.98749006   +0.10141173   +6.40172821
 C   +1.07166826   +0.04691313   +7.89571443
 O   +2.22758648   +0.00327221   +1.34539334
 H   +0.08394507   +0.04128039   +8.34875563
 H   +0.50007568   +0.88596992   -0.37907079
 H   +1.60950932   +0.91125649   +8.28889309
 H   +1.59964434   -0.84515588   +8.22760012
 H   +0.29899065   -0.99197168   +6.06052937
 H   +0.34347029   +0.89236514   +6.02582175
 H   +2.95191221   +0.80595700   +5.97434705
 H   +2.81061991   -0.91821969   +5.97971844
 H   +3.15401245   -0.00884300   +3.64690979
 H   +0.11416585   -0.01289762   +3.87237494
 H   +0.51183721   -0.87927174   -0.37879542
 H   -1.04080063   -0.00684964   -0.29679142
 H   -0.14677887   -1.78653360   +5.85954725
22
 * E =  +0.391 kcal/mol ; (4) 180_180_123_176
 C   +0.00000000   +0.00000000   +0.00000000
 O   +0.00000000   +0.00000000   +1.41515675
 C   +1.20630505   +0.00000000   +1.98290043
 C   +1.10592417   +0.00001314   +3.44828423
 C   +2.20284349   -0.00036718   +4.19598977
 C   +2.22000857   -0.00192133   +5.68178829
 C   +2.98148926   -1.16807924   +6.25386966
 C   +3.12978205   -1.19345833   +7.74316361
 O   +2.22817184   -0.00029491   +1.34629087
 H   +3.76850500   -2.01212219   +8.06393282
 H   +0.50330467   +0.88422819   -0.37874765
 H   +2.16157853   -1.32031461   +8.23039190
 H   +3.56122148   -0.26403759   +8.11037372
 H   +4.22175794   -1.01731120   +5.78342175
 H   +2.69991250   -2.12254743   +5.81750397
 H   +1.19798725   +0.00172521   +6.06850418
 H   +2.68721104   +0.92212324   +6.03191305
 H   +3.15918243   -0.00638479   +3.68609315
 H   +0.11408228   +0.00210293   +3.87490397
 H   +0.50886470   -0.88100266   -0.37878380
 H   -1.04076286   -0.00309411   -0.29690823
 H   +5.09212172   -0.85222984   +5.48562975
22
 * E =  +0.526 kcal/mol ; (5) 180_180_238_182
 C   +0.00000000   +0.00000000   +0.00000000
 O   +0.00000000   +0.00000000   +1.41510856
 C   +1.20549673   +0.00000000   +1.98322125
 C   +1.10561541   +0.00364472   +3.44858338
 C   +2.20486885   +0.01225612   +4.19213451
 C   +2.23403470   +0.01816222   +5.67706845
 C   +2.97278060   +1.20070588   +6.24491858
 C   +3.07619502   +1.25898935   +7.73712347
 O   +2.22808292   -0.00284333   +1.34703318
 H   +3.53130838   +2.18940101   +8.06622486
 H   +0.50286136   +0.88455667   -0.37853388
 H   +3.68641260   +0.43898952   +8.11958888
 H   +2.09510146   +1.18088542   +8.20189925
 H   +2.22690234   +2.25688953   +5.90399301
 H   +3.90272751   +1.42047929   +5.72662556
 H   +2.73254560   -0.89613601   +6.01850356
 H   +1.22107538   -0.01466040   +6.07806070
 H   +3.15647115   +0.02105341   +3.67306543
 H   +0.11500075   +0.00296110   +3.87728902
 H   +0.50924361   -0.88082512   -0.37873829
 H   -1.04076601   -0.00344408   -0.29683726
 H   +1.66197808   +2.96966688   +5.70532600
22
 * E =  +0.563 kcal/mol ; (6) 180_180_235_055
 C   +0.00000000   +0.00000000   +0.00000000
 O   +0.00000000   +0.00000000   +1.41515606
 C   +1.20592944   +0.00000000   +1.98347662
 C   +1.10478900   +0.00006531   +3.44885707
 C   +2.20136272   -0.00578610   +4.19702052
 C   +2.22204582   -0.01976992   +5.68386751
 C   +3.03103465   +1.10833637   +6.27209943
 C   +2.66395577   +2.49932278   +5.85842070
 O   +2.22826340   +0.00137782   +1.34749604
 H   +3.35041565   +3.22981975   +6.27815495
 H   +0.50710929   +0.88198860   -0.37885402
 H   +1.65919419   +2.75366444   +6.20172926
 H   +2.67219736   +2.60671764   +4.77590226
 H   +4.27108510   +0.90659965   +5.81099984
 H   +3.19098535   +0.99341942   +7.34029586
 H   +2.64982680   -0.96754548   +6.01640191
 H   +1.19991867   +0.01453016   +6.06918612
 H   +3.15796021   -0.00352464   +3.68658069
 H   +0.11283241   +0.00260559   +3.87516295
 H   +0.50495287   -0.88327801   -0.37874460
 H   -1.04076873   +0.00115051   -0.29687147
 H   +5.12356095   +0.75274164   +5.46381109
22
 * E =  +0.600 kcal/mol ; (7) 180_180_354_284
 C   +0.00000000   +0.00000000   +0.00000000
 O   +0.00000000   +0.00000000   +1.41527742
 C   +1.20586581   +0.00000000   +1.98344837
 C   +1.10543781   -0.00141402   +3.44830702
 C   +2.21040124   -0.01057255   +4.18530587
 C   +2.28754358   -0.03907824   +5.67378976
 C   +0.98214950   +0.08519475   +6.40405629
 C   +0.36359712   +1.44840861   +6.46802855
 O   +2.22792151   +0.00148432   +1.34633735
 H   -0.53268604   +1.44898445   +7.08275042
 H   +0.50785247   +0.88156708   -0.37877008
 H   +0.08702018   +1.80654270   +5.47584153
 H   +1.06151128   +2.17043296   +6.88812660
 H   +1.29115677   -0.20938748   +7.66272724
 H   +0.28121466   -0.71401689   +6.17635066
 H   +2.96545338   +0.75507892   +5.99450907
 H   +2.78734966   -0.96928737   +5.95572618
 H   +3.15329454   -0.01328583   +3.65121124
 H   +0.11310062   -0.00062691   +3.87149553
 H   +0.50410888   -0.88373972   -0.37873699
 H   -1.04079254   +0.00201324   -0.29677748
 H   +1.54417498   -0.39052032   +8.54426247
22
 * E =  +0.680 kcal/mol ; (8) 180_000_115_289
 C   +0.00000000   +0.00000000   +0.00000000
 O   +0.00000000   +0.00000000   +1.41524542
 C   +1.20774125   +0.00000000   +1.98108893
 C   +1.17059858   -0.00353982   +3.44794728
 C   +0.05005858   -0.01196587   +4.16256234
 C   -0.00581143   +0.00224835   +5.65019872
 C   -0.63117743   +1.27815383   +6.15897433
 C   +0.18160190   +2.52787558   +6.02079487
 O   +2.22681094   +0.00230022   +1.33944145
 H   -0.31038060   +3.37351404   +6.49404183
 H   +0.50119951   +0.88493206   -0.37974513
 H   +0.33953191   +2.77922915   +4.97134313
 H   +1.16246484   +2.40745311   +6.47722661
 H   -0.75962614   +1.07531908   +7.46437194
 H   -1.67129344   +1.39218668   +5.86302593
 H   +0.99621629   -0.10796075   +6.06287226
 H   -0.59630452   -0.84816642   +5.99406822
 H   -0.89612645   -0.00730943   +3.63620960
 H   +2.14463838   -0.00638077   +3.91340626
 H   +0.50914009   -0.88047892   -0.37943144
 H   -1.04106284   -0.00465856   -0.29620457
 H   -0.81365671   +0.91137022   +8.38361684
22
 * E =  +0.861 kcal/mol ; (9) 180_000_123_175
 C   +0.00000000   +0.00000000   +0.00000000
 O   +0.00000000   +0.00000000   +1.41508301
 C   +1.20631914   +0.00000000   +1.98197452
 C   +1.16692718   +0.00295748   +3.44911979
 C   +0.04666605   +0.00809486   +4.16257305
 C   -0.00487666   +0.01411968   +5.64869618
 C   -0.76919266   +1.18877738   +6.19886451
 C   -0.96228399   +1.21656119   +7.68291340
 O   +2.22689824   -0.00182294   +1.34248053
 H   -1.60066222   +2.04279339   +7.98435094
 H   +0.50426973   +0.88323775   -0.37964920
 H   -0.00760960   +1.33259349   +8.19858823
 H   -1.41493438   +0.29228658   +8.03725214
 H   -1.99579185   +1.05246459   +5.69016943
 H   -0.46344198   +2.13981685   +5.77122301
 H   +1.00831458   +0.00433750   +6.05762911
 H   -0.48668964   -0.90496725   +5.99178737
 H   -0.90155290   +0.01571612   +3.64018327
 H   +2.14091815   -0.00055624   +3.91499192
 H   +0.50582532   -0.88233935   -0.37964814
 H   -1.04112758   -0.00082028   -0.29590743
 H   -2.85774791   +0.89709655   +5.36225495
22
 * E =  +0.971 kcal/mol ; (10) 180_000_243_291
 C   +0.00000000   +0.00000000   +0.00000000
 O   +0.00000000   +0.00000000   +1.41522884
 C   +1.20805281   +0.00000000   +1.98079915
 C   +1.17102051   +0.00284940   +3.44760400
 C   +0.04995307   +0.01262838   +4.16139524
 C   -0.00023301   +0.00366539   +5.64951129
 C   -0.67824042   -1.23669455   +6.17762396
 C   -2.15192809   -1.36837422   +5.94290192
 O   +2.22683225   -0.00135823   +1.33877098
 H   -2.56082959   -2.21715940   +6.48507981
 H   +0.50707913   +0.88163040   -0.37953889
 H   -2.37685453   -1.52111163   +4.88661419
 H   -2.68156975   -0.47420586   +6.26691841
 H   -0.54471348   -1.13495064   +7.49100527
 H   -0.11658210   -2.14436493   +5.97334076
 H   -0.55357495   +0.87990307   +5.99407581
 H   +1.00807516   +0.07777656   +6.05259183
 H   -0.89384089   +0.01559263   +3.63189595
 H   +2.14503037   +0.00190499   +3.91326587
 H   +0.50317005   -0.88381092   -0.37972543
 H   -1.04107196   +0.00233727   -0.29625433
 H   -0.46982841   -1.01945374   +8.41929418
22
 * E =  +1.056 kcal/mol ; (11) 180_001_356_178
 C   +0.00000000   +0.00000000   +0.00000000
 O   +0.00000000   +0.00000000   +1.41487600
 C   +1.20837147   +0.00000000   +1.98060464
 C   +1.17419869   -0.00089895   +3.44749433
 C   +0.04900758   -0.01645221   +4.15409234
 C   -0.05244283   -0.02122256   +5.63870393
 C   +1.23570740   -0.10892158   +6.39775840
 C   +1.11979748   -0.06724888   +7.89005274
 O   +2.22613157   -0.00066682   +1.33688169
 H   +2.09782995   -0.04230261   +8.36295138
 H   +0.50617927   -0.88202202   -0.37996429
 H   +0.59426653   -0.94651272   +8.26647768
 H   +0.56501825   +0.81020966   +8.21725161
 H   +1.90360237   +1.00338560   +6.07818048
 H   +1.90520039   -0.88224472   +6.03010465
 H   -0.70474214   -0.85237959   +5.93006095
 H   -0.59906620   +0.87470306   +5.94658884
 H   -0.88784828   -0.02217020   +3.61301315
 H   +2.15022962   +0.01711870   +3.90542848
 H   -1.04111436   -0.00107485   -0.29633015
 H   +0.50405157   +0.88329839   -0.37977889
 H   +2.33010611   +1.81204092   +5.89240809
22
 * E =  +1.221 kcal/mol ; (12) 180_000_237_181
 C   +0.00000000   +0.00000000   +0.00000000
 O   +0.00000000   +0.00000000   +1.41507269
 C   +1.20779421   +0.00000000   +1.98075207
 C   +1.17073090   -0.00526986   +3.44777614
 C   +0.05078939   -0.00665680   +4.16121336
 C   -0.00499465   -0.01007276   +5.64659041
 C   -0.77805093   -1.17512267   +6.20415189
 C   -0.89682084   -1.23507516   +7.69518931
 O   +2.22669335   +0.00434094   +1.33902611
 H   -1.38016559   -2.15366531   +8.01717277
 H   +0.50349747   +0.88359436   -0.37985167
 H   -1.48760414   -0.39974101   +8.07503427
 H   +0.08177050   -1.18547952   +8.16894392
 H   -0.05831545   -2.25062119   +5.86616477
 H   -1.70927834   -1.36896923   +5.67749186
 H   -0.48865132   +0.91555573   +5.97905157
 H   +1.00196163   +0.00200580   +6.06330075
 H   -0.89508265   -0.00967146   +3.63403902
 H   +2.14469864   -0.00950902   +3.91304418
 H   +0.50661709   -0.88190982   -0.37952854
 H   -1.04109495   -0.00193166   -0.29623091
 H   +0.48506778   -2.98022512   +5.66913511
22
 * E =  +1.225 kcal/mol ; (13) 180_180_118_050
 C   +0.00000000   +0.00000000   +0.00000000
 O   +0.00000000   +0.00000000   +1.41510628
 C   +1.20506587   +0.00000000   +1.98375241
 C   +1.10471766   -0.00381031   +3.44919960
 C   +2.20412788   -0.00981993   +4.19303404
 C   +2.22323575   -0.00923934   +5.67946833
 C   +2.87872709   -1.22532521   +6.28725456
 C   +4.23458690   -1.61874973   +5.78691358
 O   +2.22814573   +0.00243759   +1.34815603
 H   +4.60011427   -2.49959120   +6.30754883
 H   +0.50774407   +0.88164641   -0.37882675
 H   +4.95969138   -0.81777882   +5.94544093
 H   +4.22275940   -1.84328935   +4.72280110
 H   +2.06861078   -2.24329862   +5.96630362
 H   +2.79607311   -1.22968838   +7.37055314
 H   +1.20989273   +0.09047817   +6.06454682
 H   +2.77397437   +0.87715869   +6.01356620
 H   +3.15298928   -0.00928206   +3.67084329
 H   +0.11387769   -0.00539770   +3.87756713
 H   +0.50412448   -0.88380011   -0.37861008
 H   -1.04078214   +0.00186613   -0.29676913
 H   +1.50394607   -2.93832728   +5.71622626
22
 * E =  +1.281 kcal/mol ; (14) 180_000_354_284
 C   +0.00000000   +0.00000000   +0.00000000
 O   +0.00000000   +0.00000000   +1.41524568
 C   +1.20753901   +0.00000000   +1.98114171
 C   +1.17341370   -0.00114593   +3.44776179
 C   +0.05035096   +0.00296185   +4.15806817
 C   -0.05048615   +0.02737233   +5.64687127
 C   +1.24224936   -0.09617462   +6.39931294
 C   +1.86284938   -1.45807339   +6.47103984
 O   +2.22637294   +0.00067357   +1.33876550
 H   +2.74612390   -1.45823875   +7.10422925
 H   +0.50742909   -0.88142729   -0.37953973
 H   +2.16184383   -1.81181164   +5.48386620
 H   +1.15831918   -2.18341315   +6.87410506
 H   +0.90935382   +0.19437254   +7.65223452
 H   +1.94532372   +0.70528871   +6.18695501
 H   -0.73134598   -0.76951749   +5.95441637
 H   -0.55650503   +0.95583458   +5.92351320
 H   -0.88849177   +0.00404557   +3.61946676
 H   +2.15056486   +0.00006187   +3.90478635
 H   -1.04110546   -0.00253656   -0.29610144
 H   +0.50289561   +0.88402409   -0.37954045
 H   +0.63860453   +0.37314770   +8.52939014
22
 * E =  +1.464 kcal/mol ; (15) 180_180_014_063
 C   +0.00000000   +0.00000000   +0.00000000
 O   +0.00000000   +0.00000000   +1.41491963
 C   +1.20551416   +0.00000000   +1.98336615
 C   +1.10457619   +0.00420745   +3.44864348
 C   +2.21282782   +0.01479456   +4.18029062
 C   +2.31360615   +0.05279736   +5.66583493
 C   +1.07046650   -0.23085189   +6.46024939
 C   +0.45083413   -1.58917787   +6.32599978
 O   +2.22757044   -0.00384389   +1.34568929
 H   -0.50239156   -1.63869236   +6.84633641
 H   +0.50778146   +0.88163440   -0.37881117
 H   +1.10179785   -2.34788619   +6.76458706
 H   +0.28749657   -1.86479713   +5.28812849
 H   +0.13658025   +0.65870141   +6.07015852
 H   +1.17399543   +0.08307703   +7.49517336
 H   +2.71054615   +1.03300755   +5.93976786
 H   +3.09502103   -0.65396077   +5.96626084
 H   +3.15009177   +0.02172999   +3.63690832
 H   +0.11323940   +0.00876496   +3.87265661
 H   +0.50423941   -0.88359166   -0.37907860
 H   -1.04081400   +0.00228452   -0.29678486
 H   -0.52563505   +1.26388463   +5.83684465
22
 * E =  +1.954 kcal/mol ; (16) 180_001_120_051
 C   +0.00000000   +0.00000000   +0.00000000
 O   +0.00000000   +0.00000000   +1.41511873
 C   +1.20808844   +0.00000000   +1.98060232
 C   +1.17128210   +0.00138639   +3.44774159
 C   +0.05080209   -0.00709253   +4.16086447
 C   +0.00438792   -0.01672356   +5.64784313
 C   -0.69954140   +1.17301734   +6.25278357
 C   -2.06728716   +1.51454638   +5.74635807
 O   +2.22669266   -0.00122394   +1.33848023
 H   -2.46966831   +2.37919722   +6.26695781
 H   +0.50381980   +0.88350925   -0.37954849
 H   -2.76159074   +0.68558960   +5.89908314
 H   -2.05871246   +1.74326024   +4.68297380
 H   +0.07083789   +2.22355935   +5.93695830
 H   -0.62359868   +1.17940675   +7.33649564
 H   +1.01387881   -0.08761928   +6.04877066
 H   -0.52309078   -0.92266853   +5.96728662
 H   -0.89155267   -0.01621256   +3.62954968
 H   +2.14533115   +0.01034281   +3.91293350
 H   +0.50641294   -0.88195949   -0.37974646
 H   -1.04107709   -0.00139899   -0.29630685
 H   +0.60402750   +2.94327874   +5.68930219
22
 * E =  +2.286 kcal/mol ; (17) 180_000_014_063
 C   +0.00000000   +0.00000000   +0.00000000
 O   +0.00000000   +0.00000000   +1.41485048
 C   +1.20845425   +0.00000000   +1.98068469
 C   +1.17554259   +0.00282237   +3.44774068
 C   +0.04960256   +0.00762869   +4.15323143
 C   -0.07413155   -0.01724804   +5.63894873
 C   +1.15653688   +0.27019103   +6.45125175
 C   +1.78596589   +1.62356744   +6.31203144
 O   +2.22594700   +0.00004553   +1.33647364
 H   +2.72848544   +1.67461390   +6.85126594
 H   +0.50103008   +0.88501021   -0.37991864
 H   +1.13027250   +2.39108814   +6.72779885
 H   +1.97306838   +1.88550300   +5.27471170
 H   +2.09125078   -0.63156021   +6.09315300
 H   +1.03083808   -0.02925641   +7.48802065
 H   -0.47765151   -0.99395739   +5.91584876
 H   -0.85780154   +0.69470117   +5.92072234
 H   -0.88387482   +0.00455657   +3.60598004
 H   +2.15178489   -0.00611156   +3.90531770
 H   +0.50929548   -0.88023504   -0.37985344
 H   -1.04109974   -0.00470839   -0.29635217
 H   +2.75150653   -1.24743437   +5.88315605
22
 * E =  +9.029 kcal/mol ; (18) 001_181_115_289
 C   +0.00000000   +0.00000000   +0.00000000
 O   +0.00000000   +0.00000000   +1.40816514
 C   +1.13585965   +0.00000000   +2.11724724
 C   +2.42034668   +0.01143584   +1.38641624
 C   +3.55716451   -0.01495351   +2.07617674
 C   +4.92020155   +0.01523824   +1.48335208
 C   +5.64989500   +1.27875445   +1.87123585
 C   +5.16510516   +2.55314346   +1.25297306
 O   +1.06437396   -0.00830113   +3.31490925
 H   +5.81137433   +3.38767384   +1.51160901
 H   +0.46989703   +0.89547052   -0.40071361
 H   +4.15787071   +2.79601151   +1.59350555
 H   +5.13370401   +2.47311815   +0.16763761
 H   +6.87729842   +1.09520391   +1.40123625
 H   +5.84205248   +1.35063072   +2.93875573
 H   +4.86288445   -0.05964366   +0.39788628
 H   +5.48384509   -0.84717852   +1.84197422
 H   +3.48040946   -0.03718845   +3.15678292
 H   +2.43850691   +0.03473337   +0.30845100
 H   +0.48714160   -0.88608821   -0.40073552
 H   -1.04276847   -0.00988027   -0.29210176
 H   +7.72433568   +0.94616644   +1.03429324
22
 * E =  +9.269 kcal/mol ; (19) 000_179_242_290
 C   +0.00000000   +0.00000000   +0.00000000
 O   +0.00000000   +0.00000000   +1.40822503
 C   +1.13603669   +0.00000000   +2.11682477
 C   +2.42043300   -0.00720981   +1.38586419
 C   +3.55691326   +0.02152354   +2.07610774
 C   +4.91814205   +0.00336786   +1.47830979
 C   +5.69409522   -1.22007587   +1.90290381
 C   +6.12489954   -1.29854956   +3.33537428
 O   +1.06491605   +0.00630302   +3.31461867
 H   +6.79391812   -2.13982124   +3.49697935
 H   +0.48566701   +0.88692842   -0.40066380
 H   +5.27260503   -1.43026971   +4.00277235
 H   +6.64400124   -0.39114526   +3.63859081
 H   +6.81498393   -1.13736792   +1.20475910
 H   +5.26896538   -2.14379783   +1.51927883
 H   +5.46166308   +0.89276301   +1.80428218
 H   +4.85014777   +0.04416405   +0.39248447
 H   +3.47668079   +0.04753598   +3.15580012
 H   +2.43858596   -0.03062242   +0.30782286
 H   +0.47143762   -0.89466921   -0.40060831
 H   -1.04277929   +0.00813353   -0.29210009
 H   +7.61435227   -1.03353308   +0.72327784
22
 * E =  +9.454 kcal/mol ; (20) 003_185_240_182
 C   +0.00000000   +0.00000000   +0.00000000
 O   +0.00000000   +0.00000000   +1.40841986
 C   +1.13711571   +0.00000000   +2.11513563
 C   +2.41878595   +0.06078871   +1.38125792
 C   +3.55737880   -0.03148136   +2.05970061
 C   +4.91549412   +0.01366088   +1.46155112
 C   +5.71161445   -1.23710965   +1.72572682
 C   +7.11093445   -1.25226783   +1.19457679
 O   +1.06967521   -0.04685207   +3.31203858
 H   +7.57692896   -2.22377901   +1.33582455
 H   +0.42876420   +0.91621676   -0.40019655
 H   +7.73016436   -0.51151450   +1.70320650
 H   +7.13031852   -1.02038847   +0.13131292
 H   +5.06631001   -2.18799856   +1.04307949
 H   +5.61873049   -1.60374226   +2.74470880
 H   +5.45543685   +0.86448482   +1.89175289
 H   +4.85655579   +0.19519939   +0.38824310
 H   +3.48533527   -0.15642344   +3.13365981
 H   +2.43108325   +0.17647412   +0.30926779
 H   +0.52737494   -0.86274437   -0.40030048
 H   -1.04127456   -0.05657622   -0.29216902
 H   +4.62959097   -2.81416672   +0.50959166
22
 * E =  +9.516 kcal/mol ; (21) 000_180_123_176
 C   +0.00000000   +0.00000000   +0.00000000
 O   +0.00000000   +0.00000000   +1.40794077
 C   +1.13651698   +0.00000000   +2.11711334
 C   +2.42043591   +0.00176659   +1.38467879
 C   +3.55938306   +0.00101173   +2.06979009
 C   +4.91563368   +0.00270059   +1.46414969
 C   +5.75695960   +1.16337117   +1.92554505
 C   +7.16954188   +1.19132672   +1.43119731
 O   +1.06534013   -0.00094881   +3.31429488
 H   +7.73111852   +2.00425810   +1.88363009
 H   +0.47729616   +0.89151484   -0.40080749
 H   +7.20317867   +1.32969988   +0.34923555
 H   +7.68300247   +0.25870343   +1.65775647
 H   +5.85413452   +0.99571525   +3.24635272
 H   +5.24416469   +2.11941789   +1.86534459
 H   +4.84238203   +0.00456467   +0.37366020
 H   +5.42520389   -0.92452279   +1.73885373
 H   +3.49340736   +0.00498564   +3.15125571
 H   +2.43517001   +0.00149092   +0.30626488
 H   +0.47985197   -0.89006673   -0.40095177
 H   -1.04280360   -0.00146985   -0.29229621
 H   +5.95257115   +0.81579599   +4.15772908
22
 * E =  +9.682 kcal/mol ; (22) 359_179_234_055
 C   +0.00000000   +0.00000000   +0.00000000
 O   +0.00000000   +0.00000000   +1.40797598
 C   +1.13618032   +0.00000000   +2.11744969
 C   +2.42038391   -0.01710471   +1.38565561
 C   +3.55892849   +0.00717510   +2.07093336
 C   +4.91830677   +0.00439295   +1.46948756
 C   +5.79130426   -1.10590301   +1.99753041
 C   +5.26003301   -2.50126092   +1.89037041
 O   +1.06467892   +0.01114516   +3.31464757
 H   +5.92964291   -3.21520028   +2.36235041
 H   +0.49047038   +0.88413195   -0.40108369
 H   +5.14779507   -2.79494811   +0.84467270
 H   +4.28230746   -2.59139745   +2.35888368
 H   +5.89456258   -0.85408082   +3.30797227
 H   +6.82747937   -1.00264967   +1.68884806
 H   +5.39633384   +0.96058398   +1.69137218
 H   +4.84504953   -0.06381661   +0.38100385
 H   +3.49128090   +0.03374976   +3.15244633
 H   +2.43554976   -0.04859304   +0.30770536
 H   +0.46618295   -0.89736530   -0.40089081
 H   -1.04275205   +0.01396098   -0.29215236
 H   +5.93817343   -0.66324313   +4.21992972
22
 * E =  +9.772 kcal/mol ; (23) 359_178_354_284
 C   +0.00000000   +0.00000000   +0.00000000
 O   +0.00000000   +0.00000000   +1.40787143
 C   +1.13628889   +0.00000000   +2.11705326
 C   +2.41953541   -0.02440427   +1.38454092
 C   +3.55243295   +0.02100907   +2.07947042
 C   +4.93627487   +0.02963172   +1.52683931
 C   +5.06115052   -0.16425678   +0.04378775
 C   +4.87160321   -1.55542891   -0.48006901
 O   +1.06398055   +0.01862325   +3.31442730
 H   +5.05043954   -1.60485935   -1.55092757
 H   +0.49872159   +0.87955771   -0.40098048
 H   +3.86000311   -1.91774882   -0.29296070
 H   +5.55449164   -2.24837270   +0.00794190
 H   +6.33230076   +0.12601821   -0.21122029
 H   +4.56024498   +0.60611291   -0.53750604
 H   +5.51288935   -0.73768563   +2.04822527
 H   +5.39608522   +0.97638777   +1.82165834
 H   +3.45967196   +0.07184426   +3.15756769
 H   +2.43004753   -0.07379444   +0.30815247
 H   +0.45785780   -0.90166831   -0.40103137
 H   -1.04253057   +0.02333048   -0.29231768
 H   +7.23823614   +0.30642793   -0.35588713
