22
 * E =  +0.000 kcal/mol ; (1) 180_181_342_183
 C   +0.00000000   +0.00000000   +0.00000000
 C   +0.00000000   +0.00000000   +1.46425506
 O   +1.24142724   +0.00000000   +1.95155623
 O   -0.97853810   +0.00201413   +2.16769854
 C   +1.33494528   -0.00065221   +3.36336061
 H   +2.39309819   -0.00189800   +3.59077782
 H   +0.85616858   +0.88237357   +3.77529226
 H   +0.85419397   -0.88288189   +3.77484252
 C   -1.16459861   +0.01793931   -0.66546704
 C   -1.32328100   -0.08116374   -2.14452717
 C   -0.08076067   +0.20760259   -2.96063499
 C   -0.34858877   +0.14960772   -4.45074301
 H   +0.95807160   +0.02042478   -0.49384894
 H   -2.06448418   -0.04667926   -0.06558855
 H   -1.68272306   -1.09069371   -2.36386262
 H   -2.13109499   +0.58205898   -2.45513225
 H   +0.30022850   +1.19299020   -2.68944003
 H   +0.70065382   -0.50755415   -2.70414589
 H   +0.55206366   +0.35580322   -5.02327450
 H   -0.71096600   -0.83318555   -4.74720006
 H   -1.10093341   +0.87996835   -4.74283375
 H   -1.49191213   +2.01332425   -0.56846132
22
 * E =  +0.111 kcal/mol ; (2) 180_181_102_178
 C   +0.00000000   +0.00000000   +0.00000000
 C   +0.00000000   +0.00000000   +1.46420982
 O   +1.24076054   +0.00000000   +1.95287505
 O   -0.97990337   +0.00216263   +2.16560370
 C   +1.33242620   +0.00006916   +3.36486124
 H   +2.39026244   -0.00257403   +3.59363193
 H   +0.85445466   +0.88411904   +3.77550627
 H   +0.84979875   -0.88120990   +3.77615114
 C   -1.15855957   +0.01491470   -0.67483412
 C   -1.27297948   -0.11061527   -2.15452529
 C   -1.70882342   -1.51385453   -2.56226045
 C   -1.87618404   -1.64743999   -4.06196996
 H   +0.95676886   +0.01865212   -0.49926097
 H   -2.06825462   -0.05869936   -0.08990066
 H   -2.00293535   +0.60637969   -2.52963175
 H   -0.31948657   +0.12923643   -2.62378968
 H   -0.97365397   -2.23297254   -2.20272937
 H   -2.64646536   -1.75837962   -2.06270737
 H   -2.18190673   -2.65381303   -4.33681392
 H   -2.63070943   -0.95768742   -4.43576514
 H   -0.94472858   -1.43058920   -4.58176969
 H   -1.55770835   +1.99724045   -0.55612493
22
 * E =  +0.172 kcal/mol ; (3) 180_181_221_188
 C   +0.00000000   +0.00000000   +0.00000000
 C   +0.00000000   +0.00000000   +1.46371052
 O   +1.24066163   +0.00000000   +1.95284466
 O   -0.98010947   +0.00344592   +2.16500285
 C   +1.33140998   +0.00066542   +3.36483685
 H   +2.38909915   +0.00142109   +3.59436397
 H   +0.85013382   +0.88312436   +3.77503226
 H   +0.85144510   -0.88215432   +3.77600073
 C   -1.16008199   +0.01641853   -0.67276977
 C   -1.28083203   -0.09945333   -2.15175495
 C   -2.31387837   +0.81995216   -2.78281925
 C   -2.52032157   +0.52621482   -4.25433264
 H   +0.95624104   +0.01616147   -0.49993292
 H   -2.06957667   -0.05377794   -0.08658635
 H   -0.30764986   +0.04989403   -2.61839892
 H   -1.56889641   -1.13306192   -2.36437552
 H   -3.25870913   +0.71836002   -2.24789707
 H   -1.99990644   +1.85478043   -2.65059554
 H   -3.24979422   +1.20192026   -4.69344147
 H   -1.59119968   +0.63632010   -4.81090343
 H   -2.87691532   -0.49110384   -4.40651581
 H   -1.57153348   +2.01297740   -0.42506814
22
 * E =  +0.338 kcal/mol ; (4) 180_181_104_294
 C   +0.00000000   +0.00000000   +0.00000000
 C   +0.00000000   +0.00000000   +1.46429365
 O   +1.24068451   +0.00000000   +1.95294893
 O   -0.98000576   +0.00154002   +2.16562874
 C   +1.33245220   +0.00068874   +3.36495606
 H   +2.39029900   +0.00300642   +3.59363678
 H   +0.85021506   +0.88246072   +3.77547114
 H   +0.85414900   -0.88287017   +3.77646263
 C   -1.15884679   +0.02070171   -0.67490496
 C   -1.27967490   -0.09520002   -2.15548583
 C   -1.76427387   -1.48106949   -2.57932803
 C   -0.77721985   -2.58805347   -2.27190150
 H   +0.95658452   +0.01626111   -0.49952327
 H   -2.06856825   -0.05352216   -0.08944112
 H   -1.98557520   +0.64951606   -2.51913316
 H   -0.31857673   +0.11666027   -2.62320929
 H   -2.71873258   -1.68995182   -2.09522288
 H   -1.96436671   -1.45560361   -3.64970439
 H   -1.14959810   -3.55017371   -2.61496549
 H   +0.17681302   -2.40718745   -2.76492659
 H   -0.58568492   -2.66716860   -1.20435550
 H   -1.55426999   +1.99440601   -0.53624586
22
 * E =  +0.354 kcal/mol ; (5) 180_181_340_293
 C   +0.00000000   +0.00000000   +0.00000000
 C   +0.00000000   +0.00000000   +1.46415040
 O   +1.24138948   +0.00000000   +1.95186075
 O   -0.97866744   +0.00241368   +2.16740093
 C   +1.33405236   -0.00105289   +3.36374665
 H   +2.39206373   +0.00055953   +3.59180425
 H   +0.85237240   +0.88033034   +3.77576837
 H   +0.85564844   -0.88491245   +3.77446943
 C   -1.16435039   +0.01665314   -0.66508506
 C   -1.33243087   -0.10282810   -2.14340876
 C   -0.11051942   +0.20213182   -2.99107759
 C   +0.31036268   +1.65846186   -2.94831514
 H   +0.95878982   +0.01674131   -0.49353256
 H   -2.06257970   -0.04802011   -0.06256289
 H   -1.66579358   -1.12608075   -2.33389447
 H   -2.16318750   +0.53197926   -2.45320744
 H   +0.71752090   -0.43805290   -2.68562526
 H   -0.33573541   -0.07598530   -4.01969545
 H   +1.16713445   +1.83693210   -3.59354463
 H   -0.49869054   +2.30470648   -3.28459898
 H   +0.57951789   +1.97250773   -1.94267874
 H   -1.56834083   +2.00039182   -0.53110396
22
 * E =  +0.448 kcal/mol ; (6) 180_181_224_302
 C   +0.00000000   +0.00000000   +0.00000000
 C   +0.00000000   +0.00000000   +1.46399578
 O   +1.24047113   +0.00000000   +1.95335965
 O   -0.98024289   +0.00376260   +2.16513071
 C   +1.33096301   +0.00175508   +3.36538326
 H   +2.38859129   +0.00024998   +3.59513672
 H   +0.85166096   +0.88577083   +3.77455805
 H   +0.84868882   -0.87947088   +3.77723985
 C   -1.15998362   +0.01336706   -0.67262082
 C   -1.27079817   -0.09831877   -2.15340957
 C   -2.25615736   +0.85732202   -2.81418810
 C   -3.67613317   +0.72217565   -2.30311246
 H   +0.95655262   +0.01681204   -0.49954666
 H   -2.06568797   -0.06145540   -0.08283242
 H   -0.28470377   +0.01491910   -2.60050792
 H   -1.59458520   -1.12092461   -2.36782566
 H   -1.90976678   +1.88124232   -2.67377692
 H   -2.23682784   +0.66856476   -3.88690623
 H   -4.35297685   +1.36383718   -2.86149001
 H   -4.03401800   -0.30179562   -2.40133463
 H   -3.75503922   +1.00412722   -1.25519812
 H   -1.58452368   +2.01886080   -0.42017268
22
 * E =  +0.671 kcal/mol ; (7) 180_000_342_183
 C   +0.00000000   +0.00000000   +0.00000000
 C   +0.00000000   +0.00000000   +1.46315875
 O   +1.22241079   +0.00000000   +1.99753593
 O   -1.00258905   -0.00144953   +2.13206211
 C   +1.25942927   -0.00348610   +3.41200653
 H   +2.30787160   -0.00596658   +3.68101205
 H   +0.76552469   +0.87898533   +3.80686220
 H   +0.76285651   -0.88639434   +3.80231597
 C   +1.11875574   -0.00151832   -0.74176748
 C   +1.16547760   +0.09667730   -2.23000785
 C   -0.12997289   -0.20824493   -2.95246525
 C   +0.02993919   -0.15552788   -4.45817403
 H   -0.98391621   -0.03344279   -0.43913175
 H   +2.06392067   +0.07921396   -0.22099116
 H   +1.49611304   +1.10953032   -2.47742392
 H   +1.95532686   -0.55876808   -2.59826445
 H   -0.48094014   -1.19564488   -2.65010963
 H   -0.89801081   +0.50074107   -2.64418271
 H   -0.90758232   -0.37278104   -4.96336134
 H   +0.36066198   +0.82900561   -4.78441175
 H   +0.76613101   -0.88060072   -4.80037986
 H   +1.48606193   -1.98999064   -0.66221666
22
 * E =  +0.685 kcal/mol ; (8) 180_181_099_062
 C   +0.00000000   +0.00000000   +0.00000000
 C   +0.00000000   +0.00000000   +1.46438122
 O   +1.24070763   +0.00000000   +1.95299061
 O   -0.97982020   +0.00182640   +2.16598191
 C   +1.33253445   +0.00001032   +3.36498249
 H   +2.39038878   +0.00154278   +3.59364709
 H   +0.85086910   +0.88189707   +3.77592474
 H   +0.85363138   -0.88341483   +3.77606148
 C   -1.15861592   +0.01934794   -0.67461882
 C   -1.26551756   -0.10001872   -2.15704105
 C   -1.61200491   -1.52158586   -2.59746498
 C   -2.95448474   -2.00822043   -2.08872141
 H   +0.95721448   +0.01471753   -0.49880088
 H   -2.06623403   -0.04237640   -0.08662422
 H   -2.03621130   +0.57792783   -2.52300493
 H   -0.32611550   +0.20399455   -2.61511738
 H   -1.60496194   -1.54647116   -3.68662295
 H   -0.82397711   -2.19734693   -2.26625435
 H   -3.18630487   -2.99413612   -2.48365389
 H   -2.97275658   -2.07999161   -1.00359501
 H   -3.75534842   -1.33482981   -2.39040583
 H   -1.55266039   +2.00886503   -0.57599372
22
 * E =  +0.733 kcal/mol ; (9) 180_000_102_178
 C   +0.00000000   +0.00000000   +0.00000000
 C   +0.00000000   +0.00000000   +1.46320391
 O   +1.22323142   +0.00000000   +1.99526844
 O   -1.00206464   -0.00152746   +2.13271683
 C   +1.26280050   -0.00484631   +3.40972192
 H   +2.31173649   -0.00600051   +3.67673673
 H   +0.76834893   +0.87647752   +3.80643755
 H   +0.76850580   -0.88902434   +3.80005541
 C   +1.11249499   +0.00142589   -0.75010067
 C   +1.11305244   +0.12559733   -2.23535866
 C   +1.49508680   +1.53379849   -2.67775599
 C   +1.54378672   +1.66613901   -4.18610920
 H   -0.98290955   -0.03159245   -0.44480144
 H   +2.06566213   +0.09155561   -0.24428006
 H   +1.82212659   -0.58222104   -2.66421128
 H   +0.12991988   -0.12966041   -2.62906087
 H   +0.77926648   +2.24285132   -2.26340337
 H   +2.46517385   +1.79360072   -2.25306600
 H   +1.81279046   +2.67605009   -4.48525143
 H   +2.27661058   +0.98605022   -4.61653112
 H   +0.57790543   +1.43502439   -4.63145379
 H   +1.55185536   -1.97359109   -0.65791257
22
 * E =  +0.803 kcal/mol ; (10) 180_000_221_187
 C   +0.00000000   +0.00000000   +0.00000000
 C   +0.00000000   +0.00000000   +1.46275805
 O   +1.22355685   +0.00000000   +1.99438794
 O   -1.00176472   -0.00291818   +2.13282163
 C   +1.26456020   -0.00711414   +3.40877087
 H   +2.31377160   -0.00734917   +3.67471994
 H   +0.76939692   +0.87293529   +3.80742809
 H   +0.77190038   -0.89260802   +3.79819212
 C   +1.11386493   +0.00035756   -0.74868708
 C   +1.12021973   +0.11526755   -2.23372387
 C   +2.11100615   -0.79515334   -2.94081416
 C   +2.19758564   -0.50587780   -4.42511144
 H   -0.98249205   -0.02948213   -0.44536654
 H   +2.06754298   +0.08738327   -0.24277441
 H   +0.11552793   -0.04644680   -2.62280986
 H   +1.37904884   +1.15134845   -2.47029425
 H   +3.09415624   -0.68059350   -2.48272654
 H   +1.82027688   -1.83280047   -2.78038999
 H   +2.89830310   -1.17502522   -4.91780622
 H   +1.22893590   -0.62960137   -4.90616853
 H   +2.52860000   +0.51487158   -4.60880690
 H   +1.57820746   -1.98612321   -0.52619857
22
 * E =  +0.976 kcal/mol ; (11) 180_000_104_294
 C   +0.00000000   +0.00000000   +0.00000000
 C   +0.00000000   +0.00000000   +1.46328053
 O   +1.22338191   +0.00000000   +1.99507510
 O   -1.00187717   -0.00089439   +2.13307044
 C   +1.26356670   -0.00544179   +3.40956115
 H   +2.31260479   -0.00763612   +3.67613701
 H   +0.77001184   +0.87614521   +3.80680677
 H   +0.76861547   -0.88933241   +3.79969087
 C   +1.11313801   -0.00277736   -0.74979253
 C   +1.12107617   +0.11167222   -2.23643330
 C   +1.54290826   +1.50582009   -2.69812579
 C   +0.55606806   +2.59207165   -2.32344670
 H   -0.98264447   -0.03042852   -0.44526586
 H   +2.06597279   +0.08921727   -0.24294840
 H   +1.81239119   -0.62013205   -2.65084278
 H   +0.13194785   -0.12162679   -2.62934086
 H   +2.52535204   +1.73782029   -2.28535852
 H   +1.66586933   +1.48024298   -3.78007137
 H   +0.88261392   +3.56127099   -2.69230150
 H   -0.42573244   +2.38961433   -2.74862058
 H   +0.43655428   +2.66933542   -1.24533030
 H   +1.55266880   -1.96931063   -0.63795256
22
 * E =  +1.025 kcal/mol ; (12) 180_000_340_293
 C   +0.00000000   +0.00000000   +0.00000000
 C   +0.00000000   +0.00000000   +1.46308501
 O   +1.22216786   +0.00000000   +1.99788788
 O   -1.00288288   -0.00170359   +2.13164440
 C   +1.25900318   -0.00560259   +3.41236017
 H   +2.30742804   -0.01260620   +3.68136288
 H   +0.76889384   +0.87840830   +3.80851926
 H   +0.75886702   -0.88704395   +3.80139740
 C   +1.11743055   -0.00055355   -0.74274573
 C   +1.16999245   +0.11746310   -2.23126201
 C   -0.10676633   -0.21115409   -2.98380034
 C   -0.49953810   -1.67381685   -2.90493471
 H   -0.98493484   -0.02996286   -0.43816391
 H   +2.06233770   +0.07971833   -0.22141702
 H   +1.47057775   +1.14530728   -2.44944875
 H   +1.98490951   -0.50545803   -2.60153393
 H   -0.92029456   +0.41737397   -2.62096771
 H   +0.03761175   +0.06558826   -4.02718322
 H   -1.39681879   -1.86905813   -3.48703006
 H   +0.29412715   -2.30871316   -3.29536535
 H   -0.69254543   -1.98720740   -1.88179966
 H   +1.56147458   -1.97894231   -0.63668533
22
 * E =  +1.090 kcal/mol ; (13) 180_000_224_302
 C   +0.00000000   +0.00000000   +0.00000000
 C   +0.00000000   +0.00000000   +1.46303844
 O   +1.22346843   +0.00000000   +1.99493304
 O   -1.00178771   -0.00346478   +2.13297964
 C   +1.26391608   -0.00751021   +3.40933442
 H   +2.31300581   -0.01249736   +3.67572179
 H   +0.77274474   +0.87479759   +3.80796606
 H   +0.76686549   -0.89070292   +3.79838337
 C   +1.11357556   +0.00283950   -0.74871649
 C   +1.10957718   +0.11259178   -2.23487242
 C   +2.05300564   -0.83298577   -2.96712131
 C   +3.50644311   -0.67810331   -2.56792062
 H   -0.98285024   -0.03008303   -0.44479652
 H   +2.06412488   +0.09390979   -0.23961734
 H   +0.09344044   -0.01519148   -2.60366914
 H   +1.40199016   +1.13858412   -2.47632609
 H   +1.73175287   -1.86065673   -2.79760768
 H   +1.94890330   -0.64854913   -4.03564814
 H   +4.14665051   -1.31254652   -3.17555674
 H   +3.84237118   +0.35013343   -2.69538283
 H   +3.66970003   -0.95671229   -1.52872664
 H   +1.58819318   -1.99391418   -0.52195635
22
 * E =  +1.327 kcal/mol ; (14) 180_000_099_062
 C   +0.00000000   +0.00000000   +0.00000000
 C   +0.00000000   +0.00000000   +1.46335966
 O   +1.22323614   +0.00000000   +1.99564171
 O   -1.00202433   -0.00120169   +2.13289400
 C   +1.26268237   -0.00660001   +3.41013388
 H   +2.31158847   -0.00868553   +3.67725769
 H   +0.76867141   +0.87450373   +3.80787976
 H   +0.76781153   -0.89096775   +3.79930707
 C   +1.11271798   -0.00361830   -0.74971260
 C   +1.10588587   +0.11461799   -2.23715495
 C   +1.39347745   +1.54023780   -2.70512252
 C   +2.76243176   +2.05122434   -2.30170863
 H   -0.98334838   -0.02692654   -0.44442816
 H   +2.06432693   +0.07381063   -0.24066191
 H   +1.85722314   -0.55209428   -2.65975920
 H   +0.13943027   -0.20625248   -2.62128487
 H   +1.30322396   +1.56195802   -3.79057411
 H   +0.62164737   +2.20364804   -2.31605686
 H   +2.94691788   +3.03937861   -2.71548724
 H   +2.86187226   +2.12811192   -1.22119769
 H   +3.54944287   +1.39017484   -2.66169148
 H   +1.54395997   -1.98707463   -0.67935112
22
 * E =  +1.397 kcal/mol ; (15) 180_181_354_078
 C   +0.00000000   +0.00000000   +0.00000000
 C   +0.00000000   +0.00000000   +1.46368645
 O   +1.24138420   +0.00000000   +1.95146181
 O   -0.97900904   +0.00207613   +2.16658065
 C   +1.33392333   +0.00019071   +3.36334590
 H   +2.39190732   -0.00422292   +3.59149038
 H   +0.85775313   +0.88513069   +3.77419201
 H   +0.84995296   -0.88011709   +3.77515135
 C   -1.16731214   +0.02966635   -0.66365200
 C   -1.35247292   -0.05422516   -2.14346468
 C   -0.09025587   -0.03399946   -2.98777688
 C   +0.64666346   -1.36083480   -3.01034193
 H   +0.95858407   +0.01989162   -0.49268963
 H   -2.06277055   -0.04191432   -0.05754423
 H   -1.91133632   -0.97234601   -2.34453537
 H   -2.01974058   +0.75309398   -2.44332251
 H   -0.36252767   +0.23293518   -4.00762332
 H   +0.56743166   +0.76234184   -2.63762890
 H   +1.56048266   -1.29407315   -3.59583537
 H   +0.91509442   -1.69742149   -2.01211470
 H   +0.02546266   -2.13522338   -3.45695378
 H   -1.49779516   +1.97351448   -0.46275825
22
 * E =  +1.484 kcal/mol ; (16) 180_181_239_078
 C   +0.00000000   +0.00000000   +0.00000000
 C   +0.00000000   +0.00000000   +1.46353616
 O   +1.23996816   +0.00000000   +1.95405729
 O   -0.98150132   +0.00466325   +2.16290304
 C   +1.32915856   +0.00134717   +3.36619981
 H   +2.38658289   -0.00002272   +3.59685362
 H   +0.84938806   +0.88514317   +3.77530541
 H   +0.84678231   -0.88017433   +3.77730550
 C   -1.16096581   +0.01635136   -0.67485930
 C   -1.27238974   -0.09456814   -2.15798300
 C   -1.95463264   +1.08166912   -2.85233410
 C   -1.04468527   +2.28337199   -3.00517964
 H   +0.95561378   +0.01588003   -0.50115267
 H   -2.07003590   -0.08277329   -0.09286067
 H   -0.28121749   -0.24018840   -2.58722600
 H   -1.84063646   -1.00293683   -2.36353726
 H   -2.28714421   +0.75555336   -3.83672179
 H   -2.85309167   +1.35605240   -2.29899769
 H   -1.56973606   +3.12104588   -3.45756416
 H   -0.65964244   +2.61658635   -2.04328721
 H   -0.19246940   +2.04336977   -3.63879923
 H   -1.69207405   +1.89896291   -0.25619193
22
 * E =  +2.075 kcal/mol ; (17) 180_001_354_078
 C   +0.00000000   +0.00000000   +0.00000000
 C   +0.00000000   +0.00000000   +1.46259330
 O   +1.22230830   +0.00000000   +1.99703162
 O   -1.00297913   -0.00173323   +2.13118779
 C   +1.25954211   -0.00391617   +3.41151584
 H   +2.30803993   -0.00319472   +3.68028896
 H   +0.76287697   +0.87683873   +3.80671153
 H   +0.76601558   -0.88865564   +3.80151698
 C   +1.12093427   -0.01324906   -0.74141855
 C   +1.19055239   +0.06870516   -2.23276528
 C   -0.13218779   +0.03429480   -2.97800388
 C   -0.88250324   +1.35337134   -2.94491293
 H   -0.98451188   -0.03292622   -0.43763830
 H   +2.06303489   +0.07581087   -0.21616209
 H   +1.72304794   +0.99152373   -2.47869195
 H   +1.83996339   -0.73374900   -2.58115833
 H   +0.06519121   -0.23082934   -4.01538337
 H   -0.75300067   -0.76870911   -2.57935208
 H   -1.83691972   +1.27633077   -3.45999078
 H   -1.07947313   +1.68790259   -1.92954942
 H   -0.30478239   +2.13378937   -3.43714837
 H   +1.49923521   -1.94857129   -0.55750435
22
 * E =  +2.103 kcal/mol ; (18) 180_000_240_078
 C   +0.00000000   +0.00000000   +0.00000000
 C   +0.00000000   +0.00000000   +1.46264417
 O   +1.22432579   +0.00000000   +1.99208049
 O   -1.00117370   -0.00466152   +2.13364317
 C   +1.26770160   -0.00694736   +3.40646006
 H   +2.31730966   -0.01398836   +3.67065741
 H   +0.77917271   +0.87662875   +3.80554455
 H   +0.76956190   -0.88894632   +3.79672836
 C   +1.11525320   +0.00361961   -0.75011942
 C   +1.11292021   +0.11005161   -2.23887695
 C   +1.74839310   -1.06463978   -2.97867936
 C   +0.84116424   -2.27600572   -3.04838532
 H   -0.98171005   -0.03296777   -0.44681070
 H   +2.06633587   +0.12447380   -0.24699953
 H   +0.09017510   +0.24504270   -2.59025004
 H   +1.65541382   +1.02204944   -2.49206252
 H   +1.99618554   -0.74249483   -3.98902506
 H   +2.69198448   -1.32630139   -2.49898653
 H   +1.33607901   -3.11238784   -3.53576108
 H   +0.53822488   -2.60487261   -2.05612795
 H   -0.06190175   -2.04911415   -3.61245132
 H   +1.70998779   -1.86526046   -0.36677099
22
 * E =  +8.929 kcal/mol ; (19) 359_179_343_183
 C   +0.00000000   +0.00000000   +0.00000000
 C   +0.00000000   +0.00000000   +1.47321001
 O   +1.17844765   +0.00000000   +2.11097642
 O   -1.00648627   +0.00179824   +2.12788959
 C   +2.40030204   -0.01798594   +1.41219904
 H   +3.17181726   -0.03928436   +2.17193452
 H   +2.49297979   -0.90529410   +0.78970358
 H   +2.52787552   +0.87574787   +0.80515132
 C   -1.17782214   -0.02371949   -0.64453550
 C   -1.36182834   -0.12444436   -2.11974003
 C   -0.14600989   +0.19226447   -2.96509844
 C   -0.44919162   +0.13081462   -4.44835336
 H   +0.92623352   +0.05340460   -0.54656971
 H   -2.06250789   -0.11826158   -0.02683859
 H   -1.70444693   -1.14141428   -2.33169692
 H   -2.19187349   +0.51957572   -2.41166085
 H   +0.22015399   +1.18571578   -2.70239872
 H   +0.65666060   -0.50714888   -2.73030235
 H   +0.43224839   +0.35686076   -5.04277736
 H   -0.79820195   -0.85887443   -4.73742620
 H   -1.22373637   +0.84558316   -4.71979848
 H   -1.58155365   +1.96312398   -0.51874298
22
 * E =  +9.041 kcal/mol ; (20) 359_179_104_178
 C   +0.00000000   +0.00000000   +0.00000000
 C   +0.00000000   +0.00000000   +1.47309514
 O   +1.17728723   +0.00000000   +2.11256170
 O   -1.00812687   +0.00214052   +2.12515488
 C   +2.40009251   -0.01687670   +1.41523618
 H   +3.17065171   -0.03619139   +2.17596810
 H   +2.49500066   -0.90477216   +0.79396576
 H   +2.52703718   +0.87650143   +0.80760014
 C   -1.17209759   -0.02454736   -0.65371866
 C   -1.31033441   -0.14876446   -2.13075260
 C   -1.73012152   -1.55874265   -2.53316098
 C   -1.92315052   -1.69192443   -4.02977331
 H   +0.92489145   +0.04954242   -0.55206610
 H   -2.06650601   -0.12670143   -0.05033834
 H   -2.06087097   +0.55530800   -2.48941092
 H   -0.37112193   +0.10947807   -2.61912367
 H   -0.97685618   -2.26665424   -2.18900409
 H   -2.65389137   -1.81950050   -2.01664724
 H   -2.21752108   -2.70263416   -4.30076570
 H   -2.69589137   -1.01409542   -4.38763247
 H   -1.00542300   -1.45888328   -4.56674717
 H   -1.64308695   +1.94708882   -0.50418961
22
 * E =  +9.093 kcal/mol ; (21) 359_179_221_188
 C   +0.00000000   +0.00000000   +0.00000000
 C   +0.00000000   +0.00000000   +1.47262585
 O   +1.17714219   +0.00000000   +2.11243840
 O   -1.00825962   +0.00407748   +2.12467897
 C   +2.40013397   -0.01645390   +1.41547214
 H   +3.17055921   -0.03410964   +2.17639057
 H   +2.49622742   -0.90494124   +0.79521782
 H   +2.52624652   +0.87635720   +0.80683229
 C   -1.17358384   -0.01793857   -0.65170107
 C   -1.31870322   -0.13322913   -2.12780231
 C   -2.38371860   +0.76513840   -2.73637891
 C   -2.61004508   +0.47167934   -4.20497082
 H   +0.92473826   +0.04306409   -0.55252112
 H   -2.06829067   -0.11251607   -0.04706173
 H   -0.35862655   +0.03703717   -2.61453700
 H   -1.59000969   -1.17224551   -2.33623873
 H   -3.31574705   +0.64024086   -2.18453989
 H   -2.09066284   +1.80630421   -2.60590288
 H   -3.36256225   +1.13222746   -4.62774998
 H   -1.69416269   +0.60490092   -4.77820888
 H   -2.94654791   -0.55280137   -4.35446422
 H   -1.64972307   +1.96884549   -0.37312767
22
 * E =  +9.242 kcal/mol ; (22) 359_179_105_294
 C   +0.00000000   +0.00000000   +0.00000000
 C   +0.00000000   +0.00000000   +1.47313165
 O   +1.17724985   +0.00000000   +2.11234860
 O   -1.00819162   +0.00077047   +2.12521565
 C   +2.40015227   -0.01238499   +1.41481366
 H   +3.17076722   -0.03093462   +2.17549710
 H   +2.49748707   -0.89890270   +0.79194956
 H   +2.52454145   +0.88238277   +0.80873570
 C   -1.17258130   -0.01795499   -0.65359169
 C   -1.31743036   -0.13462924   -2.13118577
 C   -1.78071896   -1.53056112   -2.54669772
 C   -0.76752580   -2.61731619   -2.25269201
 H   +0.92506917   +0.04507627   -0.55200821
 H   -2.06690590   -0.11887438   -0.04924236
 H   -2.04707363   +0.59434306   -2.47960817
 H   -0.37092254   +0.09857568   -2.61855215
 H   -2.72333333   -1.75773732   -2.04829133
 H   -1.99687915   -1.50979029   -3.61391796
 H   -1.12405184   -3.58629670   -2.59295219
 H   +0.17663751   -2.41655953   -2.75727633
 H   -0.56311171   -2.69472109   -1.18734110
 H   -1.63663461   +1.94772543   -0.48852186
22
 * E =  +9.334 kcal/mol ; (23) 359_178_341_292
 C   +0.00000000   +0.00000000   +0.00000000
 C   +0.00000000   +0.00000000   +1.47317348
 O   +1.17850296   +0.00000000   +2.11098368
 O   -1.00641200   +0.00224835   +2.12792430
 C   +2.40042302   -0.02251429   +1.41252068
 H   +3.17167041   -0.04750841   +2.17241990
 H   +2.48968890   -0.90963574   +0.78928282
 H   +2.53208522   +0.87124339   +0.80629561
 C   -1.17688235   -0.03438728   -0.64461185
 C   -1.36730605   -0.15822009   -2.11921036
 C   -0.17744172   +0.19399866   -2.99339356
 C   +0.18596272   +1.66608649   -2.96041029
 H   +0.92678372   +0.05703910   -0.54618739
 H   -2.05954299   -0.13469588   -0.02475713
 H   -1.66615700   -1.19325140   -2.30354906
 H   -2.22895083   +0.44333731   -2.41036419
 H   +0.68197729   -0.41368760   -2.70785816
 H   -0.41378321   -0.09333304   -4.01683371
 H   +1.02481971   +1.87744684   -3.61909029
 H   -0.65320767   +2.27829041   -3.28582900
 H   +0.45571391   +1.99503049   -1.95948046
 H   -1.66594871   +1.93836765   -0.48951470
22
 * E =  +9.362 kcal/mol ; (24) 359_178_224_302
 C   +0.00000000   +0.00000000   +0.00000000
 C   +0.00000000   +0.00000000   +1.47286961
 O   +1.17715443   +0.00000000   +2.11264485
 O   -1.00827469   +0.00478926   +2.12491242
 C   +2.39982119   -0.03048055   +1.41550548
 H   +3.17003839   -0.05929953   +2.17628981
 H   +2.48438364   -0.91873322   +0.79331342
 H   +2.53713246   +0.86191617   +0.80863029
 C   -1.17263081   -0.03749030   -0.65217746
 C   -1.30558368   -0.14808791   -2.13048073
 C   -2.34656200   +0.76469566   -2.76693435
 C   -3.74900275   +0.56097756   -2.23082823
 H   +0.92429262   +0.05787741   -0.55210444
 H   -2.06235456   -0.15006122   -0.04490185
 H   -0.33498634   +0.01024257   -2.59791877
 H   -1.58858981   -1.18327634   -2.34242390
 H   -2.04526215   +1.80282998   -2.62708416
 H   -2.33806995   +0.58230988   -3.84082705
 H   -4.46465943   +1.17252919   -2.77423796
 H   -4.06041534   -0.47810283   -2.32800188
 H   -3.82287445   +0.83455280   -1.18043858
 H   -1.69022576   +1.95095445   -0.36775029
22
 * E =  +9.626 kcal/mol ; (25) 000_180_100_062
 C   +0.00000000   +0.00000000   +0.00000000
 C   +0.00000000   +0.00000000   +1.47330962
 O   +1.17709388   +0.00000000   +2.11293172
 O   -1.00809281   +0.00081355   +2.12554528
 C   +2.40038738   -0.00383635   +1.41606839
 H   +3.17074424   -0.01382634   +2.17716777
 H   +2.50549740   -0.89127010   +0.79575854
 H   +2.51741687   +0.89019230   +0.80747412
 C   -1.17245028   -0.00543456   -0.65342727
 C   -1.30542347   -0.12667978   -2.13274401
 C   -1.65546121   -1.55076218   -2.56363760
 C   -2.98577773   -2.04157069   -2.02771577
 H   +0.92589577   +0.03220520   -0.55184318
 H   -2.06610386   -0.08240601   -0.04668544
 H   -2.08701498   +0.54656224   -2.48396888
 H   -0.37709345   +0.18097911   -2.61099959
 H   -1.66965572   -1.57670246   -3.65262476
 H   -0.85859406   -2.22346393   -2.24744212
 H   -3.22213711   -3.02777911   -2.41899494
 H   -2.98231332   -2.11456274   -0.94261659
 H   -3.79456408   -1.37059901   -2.31288498
 H   -1.61024803   +1.98230526   -0.53261079
22
 * E = +10.358 kcal/mol ; (26) 358_178_238_078
 C   +0.00000000   +0.00000000   +0.00000000
 C   +0.00000000   +0.00000000   +1.47229845
 O   +1.17637488   +0.00000000   +2.11326455
 O   -1.00981525   +0.00663315   +2.12206987
 C   +2.39891026   -0.03906145   +1.41634743
 H   +3.16890056   -0.07153612   +2.17719898
 H   +2.47791966   -0.92868453   +0.79538210
 H   +2.54175535   +0.85166772   +0.80823564
 C   -1.17368068   -0.04668839   -0.65366290
 C   -1.30771279   -0.15433374   -2.13425365
 C   -2.08516572   +0.97783709   -2.80172957
 C   -1.26305274   +2.23955923   -2.96752726
 H   +0.92249090   +0.06793047   -0.55378877
 H   -2.06409618   -0.19479275   -0.05397845
 H   -0.31940963   -0.22936318   -2.58807598
 H   -1.81842147   -1.09745702   -2.33453279
 H   -2.41968323   +0.63618270   -3.78000270
 H   -2.98572639   +1.18684936   -2.22405571
 H   -1.85477143   +3.04156753   -3.40165713
 H   -0.87940578   +2.59410582   -2.01276541
 H   -0.41202301   +2.06203227   -3.62305889
 H   -1.80665752   +1.80201858   -0.19044450
