22
 * E =  +0.000 kcal/mol ; (1) 179_180_000_180_278
 C   +0.00000000   +0.00000000   +0.00000000
 O   +0.00000000   +0.00000000   +1.37896583
 C   +1.20262071   +0.00000000   +1.98599258
 C   +1.05053262   +0.02939168   +3.44168353
 C   +2.12997094   +0.02608691   +4.21799348
 C   +2.14464775   +0.05337999   +5.70270880
 C   +0.79281504   +0.08732268   +6.38387653
 C   +0.91318014   +0.11326351   +7.89402460
 O   +2.23597715   -0.02780279   +1.37358460
 H   -0.06427232   +0.13741849   +8.36877668
 H   +0.18356893   +1.26057706   -0.40589119
 H   +1.46525076   +0.98949690   +8.22920695
 H   +1.43770954   -0.76687667   +8.26168728
 H   +0.21188450   -0.78256035   +6.07654670
 H   +0.23966190   +0.96332848   +6.04448856
 H   +2.73965258   +0.91519579   +6.01636497
 H   +2.71254903   -0.81434944   +6.04870539
 H   +3.09089075   +0.00158850   +3.71817848
 H   +0.04458894   +0.05432281   +3.82913751
 H   +0.83169135   -0.53652981   -0.43840706
 H   -0.98559969   -0.26191284   -0.35702281
 H   +0.30335654   +2.15645848   -0.64065413
22
 * E =  +0.071 kcal/mol ; (2) 181_180_121_178_082
 C   +0.00000000   +0.00000000   +0.00000000
 O   +0.00000000   +0.00000000   +1.37904262
 C   +1.20252062   +0.00000000   +1.98569388
 C   +1.05148529   -0.02950940   +3.44169011
 C   +2.12475857   -0.02702702   +4.22537567
 C   +2.10411118   -0.06415842   +5.70819414
 C   +2.85537271   -1.26399151   +6.27160297
 C   +2.87749046   -1.26760842   +7.78615017
 O   +2.23621377   +0.02764084   +1.37408475
 H   +3.41367415   -2.13118345   +8.17134910
 H   +0.18308435   -1.26077505   -0.40546816
 H   +1.86852154   -1.29585517   +8.19355698
 H   +3.36463638   -0.37455540   +8.17366551
 H   +3.87544337   -1.26120553   +5.88694228
 H   +2.39191777   -2.17875333   +5.90375881
 H   +1.07626621   -0.06376977   +6.06952555
 H   +2.57318853   +0.84747919   +6.08622532
 H   +3.09373884   -0.00701926   +3.73931395
 H   +0.04645254   -0.05326693   +3.83460721
 H   -0.98541416   +0.26244792   -0.35706998
 H   +0.83212553   +0.53608352   -0.43813293
 H   +0.30277768   -2.15682188   -0.63942426
22
 * E =  +0.078 kcal/mol ; (3) 179_180_122_178_278
 C   +0.00000000   +0.00000000   +0.00000000
 O   +0.00000000   +0.00000000   +1.37906063
 C   +1.20251437   +0.00000000   +1.98569723
 C   +1.05145014   +0.02927383   +3.44170530
 C   +2.12470618   +0.02797653   +4.22540802
 C   +2.10367980   +0.04905212   +5.70852618
 C   +2.81917896   -1.14951875   +6.31910249
 C   +2.84179288   -1.09453697   +7.83265174
 O   +2.23622318   -0.02771888   +1.37411638
 H   +3.35234189   -1.95783215   +8.25182555
 H   +0.18232501   +1.26085609   -0.40557326
 H   +1.83259117   -1.07685007   +8.24007259
 H   +3.35529411   -0.20178639   +8.18522099
 H   +3.83875969   -1.19206046   +5.93544947
 H   +2.32861901   -2.06392571   +5.98710878
 H   +1.07649263   +0.09428600   +6.06887962
 H   +2.59984260   +0.96048091   +6.05075656
 H   +3.09359803   -0.00000160   +3.73956831
 H   +0.04643866   +0.05492910   +3.83455879
 H   +0.83244405   -0.53563201   -0.43807485
 H   -0.98526504   -0.26297369   -0.35709223
 H   +0.30151856   +2.15689877   -0.63978243
22
 * E =  +0.227 kcal/mol ; (4) 181_181_123_295_082
 C   +0.00000000   +0.00000000   +0.00000000
 O   +0.00000000   +0.00000000   +1.37900786
 C   +1.20223291   +0.00000000   +1.98608755
 C   +1.05065874   -0.03072002   +3.44204654
 C   +2.12366867   -0.02540866   +4.22604523
 C   +2.10752842   -0.05298786   +5.70998222
 C   +2.89432164   -1.22836589   +6.28201089
 C   +2.29539253   -2.57294698   +5.92354908
 O   +2.23623494   +0.02749508   +1.37486973
 H   +2.86817264   -3.38759725   +6.35947323
 H   +0.18446218   -1.26058122   -0.40530844
 H   +2.27138601   -2.72171357   +4.84613040
 H   +1.27258858   -2.65369038   +6.28826406
 H   +2.93826062   -1.12004324   +7.36470253
 H   +3.92386176   -1.17513359   +5.92662408
 H   +1.07985214   -0.07985704   +6.07138804
 H   +2.55019035   +0.87616175   +6.07387469
 H   +3.09283085   -0.00383596   +3.73946834
 H   +0.04567105   -0.05760015   +3.83471624
 H   -0.98570345   +0.26139730   -0.35701821
 H   +0.83147539   +0.53694076   -0.43831944
 H   +0.30521845   -2.15658632   -0.63901759
22
 * E =  +0.242 kcal/mol ; (5) 179_180_123_295_278
 C   +0.00000000   +0.00000000   +0.00000000
 O   +0.00000000   +0.00000000   +1.37905840
 C   +1.20220719   +0.00000000   +1.98613794
 C   +1.05067851   +0.03065244   +3.44212571
 C   +2.12395028   +0.03342743   +4.22576290
 C   +2.10823265   +0.06720104   +5.70958009
 C   +2.86121088   -1.10550241   +6.33035001
 C   +2.22336097   -2.44605110   +6.02837078
 O   +2.23623167   -0.02957843   +1.37505197
 H   +2.77277124   -3.25805642   +6.49803559
 H   +0.18201204   +1.26087384   -0.40554060
 H   +2.19407294   -2.63876128   +4.95802895
 H   +1.19898463   -2.48185396   +6.39586410
 H   +2.90933291   -0.95351344   +7.40758777
 H   +3.89152396   -1.09701472   +5.97332739
 H   +1.08053375   +0.08529411   +6.07145954
 H   +2.57787646   +0.99747742   +6.03467611
 H   +3.09288590   +0.00580693   +3.73902520
 H   +0.04566855   +0.05432924   +3.83494644
 H   +0.83243583   -0.53549600   -0.43824100
 H   -0.98524481   -0.26309340   -0.35704549
 H   +0.30093736   +2.15695743   -0.63982029
22
 * E =  +0.719 kcal/mol ; (6) 179_359_000_180_278
 C   +0.00000000   +0.00000000   +0.00000000
 O   +0.00000000   +0.00000000   +1.37928496
 C   +1.20428600   +0.00000000   +1.98418333
 C   +1.11823994   +0.03258560   +3.44426473
 C   -0.02839599   +0.08194522   +4.11655908
 C   -0.16736800   +0.12064040   +5.59610372
 C   +1.12118268   +0.09983003   +6.39085128
 C   +0.87169256   +0.14123072   +7.88473528
 O   +2.23440014   -0.03072714   +1.36680657
 H   +1.80465754   +0.12578968   +8.44206056
 H   +0.18208888   +1.26166383   -0.40857293
 H   +0.27912467   -0.71267214   +8.20831089
 H   +0.33211305   +1.04309180   +8.16837264
 H   +1.73995150   +0.94829338   +6.09829279
 H   +1.68747334   -0.79665735   +6.13772721
 H   -0.80029467   -0.71893365   +5.89568355
 H   -0.74745674   +1.01032167   +5.85519043
 H   -0.94853813   +0.09743133   +3.54730419
 H   +2.07823519   +0.01729825   +3.93501293
 H   +0.83098052   -0.53745599   -0.43843997
 H   -0.98572132   -0.26311144   -0.35618815
 H   +0.29967477   +2.15671174   -0.64520622
22
 * E =  +0.724 kcal/mol ; (7) 179_180_241_297_278
 C   +0.00000000   +0.00000000   +0.00000000
 O   +0.00000000   +0.00000000   +1.37901556
 C   +1.20228008   +0.00000000   +1.98597219
 C   +1.05113918   +0.03035019   +3.44203002
 C   +2.12477871   +0.02628461   +4.22563682
 C   +2.09424727   +0.06288312   +5.70942193
 C   +2.79048153   +1.28788140   +6.29885345
 C   +4.27424028   +1.35682112   +5.99584166
 O   +2.23621986   -0.02791735   +1.37465384
 H   +4.73335367   +2.20538047   +6.49670233
 H   +0.18371052   +1.26065292   -0.40552673
 H   +4.46733016   +1.46675650   +4.93133217
 H   +4.78564976   +0.45723101   +6.33512376
 H   +2.64254153   +1.27051105   +7.37788164
 H   +2.29561827   +2.18747722   +5.93409886
 H   +2.59254711   -0.83268948   +6.08835031
 H   +1.06257425   +0.02336969   +6.05431736
 H   +3.09044631   -0.00255550   +3.73568037
 H   +0.04590978   +0.05585510   +3.83460421
 H   +0.83179983   -0.53652320   -0.43820884
 H   -0.98555562   -0.26194107   -0.35703897
 H   +0.30390430   +2.15663984   -0.63952737
22
 * E =  +0.733 kcal/mol ; (8) 179_180_119_063_278
 C   +0.00000000   +0.00000000   +0.00000000
 O   +0.00000000   +0.00000000   +1.37904817
 C   +1.20226939   +0.00000000   +1.98600673
 C   +1.05105385   +0.02943770   +3.44208704
 C   +2.12459620   +0.02805850   +4.22582475
 C   +2.09353105   +0.05025456   +5.70987721
 C   +2.74997028   -1.17261295   +6.34732951
 C   +4.23026981   -1.30197189   +6.04718947
 O   +2.23621068   -0.02832092   +1.37471033
 H   +4.66207492   -2.14510704   +6.58046471
 H   +0.18483208   +1.26048306   -0.40565587
 H   +4.77131369   -0.40717321   +6.35126197
 H   +4.41815086   -1.45900949   +4.98764400
 H   +2.22544287   -2.06926816   +6.01842395
 H   +2.60411664   -1.10791937   +7.42483081
 H   +1.06388070   +0.13679151   +6.05219309
 H   +2.62080181   +0.94337406   +6.05369242
 H   +3.09058556   +0.00685054   +3.73612920
 H   +0.04579201   +0.05517492   +3.83456649
 H   +0.83114056   -0.53736533   -0.43840799
 H   -0.98584172   -0.26099574   -0.35694253
 H   +0.30567466   +2.15625355   -0.63991749
22
 * E =  +0.752 kcal/mol ; (9) 178_359_121_178_278
 C   +0.00000000   +0.00000000   +0.00000000
 O   +0.00000000   +0.00000000   +1.37942692
 C   +1.20393673   +0.00000000   +1.98419745
 C   +1.11542734   +0.03542329   +3.44437365
 C   -0.02712994   +0.08891480   +4.12210510
 C   -0.13163949   +0.13884080   +5.60218178
 C   -0.86359605   +1.38144220   +6.09329319
 C   -1.01287449   +1.40174138   +7.60051969
 O   +2.23471780   -0.03271505   +1.36825209
 H   -1.53381467   +2.29562694   +7.93400079
 H   +0.18468221   +1.26145149   -0.40829894
 H   -0.04157481   +1.38241221   +8.09129701
 H   -1.57650710   +0.53882037   +7.95082443
 H   -1.84681705   +1.42790530   +5.62419418
 H   -0.32327834   +2.26707719   +5.76069669
 H   +0.86080861   +0.08932649   +6.04874427
 H   -0.67724507   -0.74391353   +5.94428769
 H   -0.95497919   +0.11071922   +3.56393635
 H   +2.07315537   +0.01776981   +3.94196760
 H   +0.82980150   -0.53920101   -0.43852353
 H   -0.98626448   -0.26111687   -0.35605962
 H   +0.30434058   +2.15622705   -0.64457330
22
 * E =  +0.756 kcal/mol ; (10) 179_359_239_182_278
 C   +0.00000000   +0.00000000   +0.00000000
 O   +0.00000000   +0.00000000   +1.37940466
 C   +1.20387952   +0.00000000   +1.98427813
 C   +1.11510703   +0.03282966   +3.44452194
 C   -0.02795052   +0.08071795   +4.12178758
 C   -0.13415180   +0.11028020   +5.60227036
 C   -0.94496220   -1.05621463   +6.15247605
 C   -1.09418380   -0.99221024   +7.65849246
 O   +2.23478128   -0.03069566   +1.36841832
 H   -1.67182343   -1.83277958   +8.03453928
 H   +0.18054386   +1.26198948   -0.40827155
 H   -1.60035096   -0.07825847   +7.96421915
 H   -0.12332943   -1.01155206   +8.15013368
 H   -0.46367375   -1.99060706   +5.86557901
 H   -1.92952360   -1.06174367   +5.68387748
 H   -0.62081371   +1.04248901   +5.89905096
 H   +0.85980753   +0.11729294   +6.04814433
 H   -0.95566892   +0.09056125   +3.56305007
 H   +2.07284358   +0.02036954   +3.94224378
 H   +0.83177744   -0.53641792   -0.43821239
 H   -0.98536953   -0.26426021   -0.35621714
 H   +0.29723035   +2.15717335   -0.64464000
22
 * E =  +0.850 kcal/mol ; (11) 179_180_009_072_278
 C   +0.00000000   +0.00000000   +0.00000000
 O   +0.00000000   +0.00000000   +1.37894420
 C   +1.20243909   +0.00000000   +1.98663143
 C   +1.04898918   +0.03271208   +3.44190156
 C   +2.12811039   +0.03559129   +4.21846598
 C   +2.15950141   +0.10175472   +5.70393564
 C   +0.82946036   -0.03235948   +6.42274753
 C   +0.26025627   -1.43819978   +6.38213140
 O   +2.23613114   -0.03054066   +1.37492065
 H   -0.69538723   -1.49046207   +6.89794247
 H   +0.18253599   +1.26071382   -0.40576973
 H   +0.93580737   -2.14035298   +6.86764026
 H   +0.10781454   -1.78496849   +5.36311176
 H   +0.11537286   +0.67788036   +6.00514121
 H   +0.97040996   +0.26430449   +7.46095159
 H   +2.63376259   +1.05025616   +5.96797147
 H   +2.85143013   -0.66385914   +6.06270329
 H   +3.08666645   +0.01069121   +3.71381631
 H   +0.04191461   +0.05692307   +3.82694854
 H   +0.83203241   -0.53596506   -0.43842665
 H   -0.98539425   -0.26263732   -0.35706193
 H   +0.30177579   +2.15678605   -0.64034430
22
 * E =  +0.921 kcal/mol ; (12) 182_001_237_065_082
 C   +0.00000000   +0.00000000   +0.00000000
 O   +0.00000000   +0.00000000   +1.37942585
 C   +1.20410890   +0.00000000   +1.98416607
 C   +1.11605758   -0.03594989   +3.44437995
 C   -0.02639644   -0.08386663   +4.12265168
 C   -0.13591954   -0.12223511   +5.60358003
 C   -0.90902369   -1.33915386   +6.10249279
 C   -0.21453786   -2.64991190   +5.79471150
 O   +2.23473397   +0.03217741   +1.36795168
 H   -0.78218468   -3.49505005   +6.17587393
 H   +0.18329383   -1.26174286   -0.40764150
 H   +0.77471560   -2.68257400   +6.24828618
 H   -0.08714741   -2.78967041   +4.72336425
 H   -1.90578854   -1.33509441   +5.65984544
 H   -1.05202221   -1.24037776   +7.17751250
 H   -0.65230282   +0.78154802   +5.93247032
 H   +0.85780015   -0.10204237   +6.05006731
 H   -0.95457854   -0.10277772   +3.56419767
 H   +2.07397439   -0.02246749   +3.94161764
 H   -0.98594651   +0.26218202   -0.35615261
 H   +0.83050993   +0.53809653   -0.43852610
 H   +0.30199384   -2.15711099   -0.64252177
22
 * E =  +0.939 kcal/mol ; (13) 179_359_237_065_278
 C   +0.00000000   +0.00000000   +0.00000000
 O   +0.00000000   +0.00000000   +1.37945319
 C   +1.20400879   +0.00000000   +1.98431474
 C   +1.11536965   +0.03367804   +3.44459009
 C   -0.02757650   +0.08637735   +4.12165373
 C   -0.13869216   +0.12951316   +5.60232485
 C   -0.98648478   -1.00942923   +6.16026326
 C   -0.37536790   -2.37512434   +5.92243577
 O   +2.23476848   -0.03203383   +1.36832476
 H   -0.99497250   -3.16261961   +6.34403023
 H   +0.18248359   +1.26181576   -0.40805562
 H   +0.60968355   -2.44628349   +6.38072942
 H   -0.25630173   -2.57698686   +4.86001937
 H   -1.98102816   -0.96577587   +5.71475188
 H   -1.12315447   -0.84710818   +7.22834925
 H   -0.59713703   +1.07945604   +5.88342650
 H   +0.85448716   +0.11011395   +6.05005420
 H   -0.95521170   +0.09736833   +3.56201412
 H   +2.07292150   +0.01859840   +3.94247460
 H   +0.83098466   -0.53756032   -0.43831106
 H   -0.98575498   -0.26282626   -0.35619778
 H   +0.30064643   +2.15685596   -0.64402309
22
 * E =  +1.417 kcal/mol ; (14) 181_001_241_297_082
 C   +0.00000000   +0.00000000   +0.00000000
 O   +0.00000000   +0.00000000   +1.37944103
 C   +1.20412560   +0.00000000   +1.98412937
 C   +1.11590580   -0.03494223   +3.44440301
 C   -0.02678880   -0.08913231   +4.12236149
 C   -0.12078668   -0.13649414   +5.60442046
 C   -0.79101395   -1.40470679   +6.12837727
 C   -2.23588485   -1.56005605   +5.69671914
 O   +2.23473395   +0.03206791   +1.36788897
 H   -2.68596353   -2.43687698   +6.15527240
 H   +0.18222914   -1.26180269   -0.40807188
 H   -2.32799485   -1.67644937   +4.61927427
 H   -2.82786331   -0.69413030   +5.98955173
 H   -0.73946048   -1.38638797   +7.21622270
 H   -0.21311752   -2.27056174   +5.80672492
 H   -0.69984014   +0.72586353   +5.94341892
 H   +0.87429044   -0.04087651   +6.03491582
 H   -0.95174315   -0.10500814   +3.56122373
 H   +2.07398170   -0.01640261   +3.94150059
 H   -0.98570722   +0.26307869   -0.35616210
 H   +0.83100972   +0.53745534   -0.43839886
 H   +0.30017329   -2.15700384   -0.64390556
22
 * E =  +1.429 kcal/mol ; (15) 179_359_241_297_278
 C   +0.00000000   +0.00000000   +0.00000000
 O   +0.00000000   +0.00000000   +1.37944524
 C   +1.20404210   +0.00000000   +1.98425674
 C   +1.11551754   +0.03501467   +3.44454981
 C   -0.02767718   +0.08693684   +4.12182516
 C   -0.12342430   +0.12088135   +5.60411297
 C   -0.88143109   -1.06833147   +6.18987984
 C   -2.33481492   -1.14095766   +5.76493508
 O   +2.23476157   -0.03262681   +1.36822445
 H   -2.84518689   -1.96030618   +6.26481902
 H   +0.18232488   +1.26175858   -0.40824259
 H   -2.43781422   -1.30187283   +4.69419861
 H   -2.86270906   -0.22188172   +6.01504500
 H   -0.82622975   -0.99960626   +7.27551735
 H   -0.36782365   -1.98847041   +5.91277125
 H   -0.63947258   +1.03821772   +5.89744689
 H   +0.87633089   +0.16765671   +6.03183146
 H   -0.95187869   +0.10499825   +3.55951625
 H   +2.07355852   +0.02103720   +3.94185178
 H   +0.83094846   -0.53758926   -0.43833831
 H   -0.98574962   -0.26287735   -0.35618976
 H   +0.30034054   +2.15678766   -0.64443854
22
 * E =  +1.582 kcal/mol ; (16) 179_359_351_288_278
 C   +0.00000000   +0.00000000   +0.00000000
 O   +0.00000000   +0.00000000   +1.37931829
 C   +1.20411134   +0.00000000   +1.98437710
 C   +1.11852815   +0.03382659   +3.44426373
 C   -0.02768935   +0.09072762   +4.11642336
 C   -0.18172511   +0.16566345   +5.59542432
 C   +1.07270981   -0.03301273   +6.42630703
 C   +1.57317432   -1.46531955   +6.43148499
 O   +2.23433813   -0.03173045   +1.36707075
 H   +2.47540718   -1.56392875   +7.02991875
 H   +0.18451399   +1.26144364   -0.40824166
 H   +1.79908899   -1.82029624   +5.42912750
 H   +0.82331850   -2.13266855   +6.85286813
 H   +0.85575232   +0.27168157   +7.44894012
 H   +1.85475285   +0.64078879   +6.07566551
 H   -0.93941707   -0.56268550   +5.89393822
 H   -0.62736169   +1.13832099   +5.81822840
 H   -0.94502853   +0.10954157   +3.54261556
 H   +2.07948265   +0.01396817   +3.93345518
 H   +0.83006572   -0.53885122   -0.43847855
 H   -0.98619632   -0.26141578   -0.35610603
 H   +0.30413137   +2.15641682   -0.64411415
22
 * E =  +1.584 kcal/mol ; (17) 181_001_351_288_082
 C   +0.00000000   +0.00000000   +0.00000000
 O   +0.00000000   +0.00000000   +1.37931525
 C   +1.20405339   +0.00000000   +1.98446263
 C   +1.11837936   -0.03316437   +3.44437362
 C   -0.02827192   -0.07345460   +4.11699585
 C   -0.18391146   -0.07810336   +5.59775111
 C   +1.08174871   -0.24159535   +6.41924944
 C   +1.66446222   -1.64115317   +6.35851252
 O   +2.23433203   +0.03106359   +1.36720142
 H   +2.57279816   -1.71442470   +6.95132820
 H   +0.18121333   -1.26189026   -0.40817343
 H   +1.90723419   -1.93650455   +5.34091527
 H   +0.95589330   -2.36938823   +6.74934052
 H   +0.84976269   +0.00253797   +7.45476408
 H   +1.82256246   +0.49197474   +6.10037761
 H   -0.89651606   -0.86352482   +5.86034730
 H   -0.68599903   +0.85470109   +5.86633955
 H   -0.94605303   -0.08286643   +3.54368722
 H   +2.07957429   -0.02447695   +3.93342017
 H   -0.98549665   +0.26385806   -0.35623291
 H   +0.83159288   +0.53668226   -0.43825740
 H   +0.29851893   -2.15723057   -0.64403870
22
 * E =  +7.930 kcal/mol ; (18) 347_171_238_182_073
 C   +0.00000000   +0.00000000   +0.00000000
 O   +0.00000000   +0.00000000   +1.37343064
 C   +1.14845001   +0.00000000   +2.08949902
 C   +2.40223279   -0.28415006   +1.37129300
 C   +3.56246847   -0.11806945   +2.00027692
 C   +4.89892910   -0.39228088   +1.41900582
 C   +5.68335674   -1.41806423   +2.22830451
 C   +7.06790361   -1.65648245   +1.66225018
 O   +1.07752972   +0.21481112   +3.26473791
 H   +7.61227475   -2.39226057   +2.24856712
 H   +0.36347748   -1.19422526   -0.46034876
 H   +7.65289496   -0.73847404   +1.65590133
 H   +7.01619730   -2.02202081   +0.63830591
 H   +5.12533668   -2.35328041   +2.25409592
 H   +5.75929161   -1.07781912   +3.26111806
 H   +5.46778008   +0.54040190   +1.39747291
 H   +4.80022019   -0.72710499   +0.38685805
 H   +3.52487260   +0.23241598   +3.02532925
 H   +2.37190891   -0.64210533   +0.35437773
 H   -1.01806212   +0.10466148   -0.34885665
 H   +0.69790116   +0.69587532   -0.45594503
 H   +0.63413793   -2.04877596   -0.76217665
22
 * E =  +7.946 kcal/mol ; (19) 012_189_238_182_287
 C   +0.00000000   +0.00000000   +0.00000000
 O   +0.00000000   +0.00000000   +1.37341673
 C   +1.14778375   +0.00000000   +2.09028288
 C   +2.40315668   +0.27915522   +1.37286241
 C   +3.56168030   +0.11407269   +2.00532845
 C   +4.90052273   +0.36947228   +1.42125128
 C   +5.79572198   -0.86317638   +1.45001841
 C   +7.18018194   -0.57918455   +0.90518552
 O   +1.07547440   -0.21174852   +3.26603248
 H   +7.80422995   -1.46883167   +0.92970981
 H   +0.36554831   +1.19378368   -0.46012352
 H   +7.67995717   +0.19289970   +1.48737649
 H   +7.13365573   -0.23579711   -0.12665109
 H   +5.32515733   -1.65914591   +0.87365397
 H   +5.86921007   -1.22890973   +2.47431149
 H   +5.38279757   +1.16151349   +1.99934047
 H   +4.80331658   +0.73816361   +0.40060862
 H   +3.52143899   -0.24003768   +3.02901609
 H   +2.37589956   +0.63539068   +0.35527346
 H   +0.69722880   -0.69670245   -0.45573575
 H   -1.01815451   -0.10336484   -0.34892936
 H   +0.63719537   +2.04792720   -0.76200443
22
 * E =  +8.061 kcal/mol ; (20) 347_171_237_064_073
 C   +0.00000000   +0.00000000   +0.00000000
 O   +0.00000000   +0.00000000   +1.37348143
 C   +1.14817112   +0.00000000   +2.08955099
 C   +2.40200019   -0.28641004   +1.37219823
 C   +3.56206679   -0.11606889   +2.00026416
 C   +4.90198456   -0.38400928   +1.42189601
 C   +5.70356069   -1.38243693   +2.25230720
 C   +5.07485644   -2.76026689   +2.29050217
 O   +1.07724583   +0.21521777   +3.26481399
 H   +5.67885556   -3.45153489   +2.87268293
 H   +0.35977789   -1.19564901   -0.45943741
 H   +4.97421483   -3.17107184   +1.28713876
 H   +4.08183962   -2.73120163   +2.73386319
 H   +5.81246391   -0.99670912   +3.26630028
 H   +6.70891661   -1.44526328   +1.83874565
 H   +5.45135170   +0.55831338   +1.37939881
 H   +4.80323893   -0.74371804   +0.39795845
 H   +3.52333529   +0.23874142   +3.02422727
 H   +2.37222647   -0.65041864   +0.35745539
 H   -1.01754427   +0.10847809   -0.34911583
 H   +0.70118681   +0.69281512   -0.45556263
 H   +0.62826483   -2.05135829   -0.76006162
22
 * E =  +8.097 kcal/mol ; (21) 348_171_123_295_073
 C   +0.00000000   +0.00000000   +0.00000000
 O   +0.00000000   +0.00000000   +1.37348102
 C   +1.14794138   +0.00000000   +2.09002036
 C   +2.40288518   -0.27817838   +1.37148900
 C   +3.56190032   -0.11306840   +2.00292411
 C   +4.90266136   -0.37441828   +1.42371149
 C   +5.81383566   +0.84814884   +1.47860385
 C   +5.31327596   +1.99936031   +0.63056777
 O   +1.07613973   +0.21210130   +3.26578191
 H   +5.99362988   +2.84595809   +0.67525901
 H   +0.36430844   -1.19432870   -0.45978076
 H   +4.33538412   +2.34105716   +0.96349020
 H   +5.22047588   +1.70310508   -0.41323088
 H   +6.80835378   +0.55181126   +1.14893035
 H   +5.91756407   +1.16972563   +2.51523849
 H   +4.80581499   -0.72356524   +0.39598484
 H   +5.36511266   -1.18259671   +1.99355098
 H   +3.52193562   +0.24175995   +3.02681642
 H   +2.37451721   -0.63302896   +0.35350123
 H   -1.01809022   +0.10417258   -0.34886821
 H   +0.69773500   +0.69612211   -0.45585423
 H   +0.63480696   -2.04894946   -0.76107862
22
 * E =  +8.569 kcal/mol ; (22) 013_189_119_063_287
 C   +0.00000000   +0.00000000   +0.00000000
 O   +0.00000000   +0.00000000   +1.37343775
 C   +1.14815865   +0.00000000   +2.08977239
 C   +2.40258091   +0.28404406   +1.37249506
 C   +3.56238957   +0.11675604   +2.00251049
 C   +4.89621022   +0.39343386   +1.41361417
 C   +5.67754043   +1.46560477   +2.17132470
 C   +6.01312417   +1.08765792   +3.60052066
 O   +1.07671239   -0.21445212   +3.26514620
 H   +6.63190505   +1.84986059   +4.06711447
 H   +0.36262912   +1.19477460   -0.45953598
 H   +6.56226098   +0.14805217   +3.63904297
 H   +5.12125852   +0.97674515   +4.21262315
 H   +5.10980409   +2.39537167   +2.15723514
 H   +6.59825144   +1.65805281   +1.62216933
 H   +4.78385239   +0.68646529   +0.37124158
 H   +5.47884662   -0.53078298   +1.42596073
 H   +3.51958859   -0.24077027   +3.02383472
 H   +2.37326829   +0.64318000   +0.35588773
 H   +0.69908542   -0.69479970   -0.45574714
 H   -1.01786254   -0.10587180   -0.34901081
 H   +0.63290897   +2.04981555   -0.76021056
22
 * E =  +8.586 kcal/mol ; (23) 348_174_352_289_071
 C   +0.00000000   +0.00000000   +0.00000000
 O   +0.00000000   +0.00000000   +1.37290368
 C   +1.14739140   +0.00000000   +2.09197038
 C   +2.40399125   -0.26144621   +1.37179821
 C   +3.55586866   -0.14928668   +2.02856564
 C   +4.91877587   -0.36835617   +1.47662593
 C   +5.00845403   -0.94956782   +0.07731648
 C   +4.61036594   -2.41188047   +0.00112467
 O   +1.06945642   +0.19359534   +3.27056888
 H   +4.68774453   -2.78667530   -1.01643324
 H   +0.39831016   -1.18422525   -0.45882284
 H   +3.58967766   -2.57574064   +0.33765578
 H   +5.26152033   -3.01968010   +0.62682970
 H   +6.03449228   -0.84197473   -0.27099060
 H   +4.40051008   -0.35507768   -0.60569493
 H   +5.46511369   -1.00549103   +2.17613824
 H   +5.43570997   +0.59365484   +1.51775878
 H   +3.49362134   +0.14733192   +3.06856363
 H   +2.37519625   -0.56228403   +0.33797352
 H   -1.02036679   +0.07706367   -0.34928703
 H   +0.67940802   +0.71382001   -0.45636216
 H   +0.70012524   -2.03047274   -0.75485796
22
 * E =  +8.603 kcal/mol ; (24) 012_188_240_297_287
 C   +0.00000000   +0.00000000   +0.00000000
 O   +0.00000000   +0.00000000   +1.37343303
 C   +1.14752906   +0.00000000   +2.09056824
 C   +2.40346539   +0.27703941   +1.37315792
 C   +3.56158083   +0.11877448   +2.00863000
 C   +4.89733667   +0.37636760   +1.41571816
 C   +5.79704516   -0.85766064   +1.38805271
 C   +6.14112671   -1.39898854   +2.76159686
 O   +1.07461060   -0.21006859   +3.26664664
 H   +6.83935913   -2.22876930   +2.68728230
 H   +0.36666426   +1.19361527   -0.45973444
 H   +5.26200519   -1.76254267   +3.28835004
 H   +6.60484933   -0.63201255   +3.37995094
 H   +6.71419505   -0.59103845   +0.86460303
 H   +5.31754126   -1.63442320   +0.79289081
 H   +5.39152019   +1.14987037   +2.00857000
 H   +4.78170468   +0.77272707   +0.40849646
 H   +3.51538963   -0.22156515   +3.03568862
 H   +2.37627539   +0.62621275   +0.35302738
 H   +0.69650780   -0.69736454   -0.45580713
 H   -1.01825798   -0.10239677   -0.34889781
 H   +0.63948294   +2.04764622   -0.76059008
