22
 * E =  +0.000 kcal/mol ; (1) 180_180_000_181_297
 C   +0.00000000   +0.00000000   +0.00000000
 O   +0.00000000   +0.00000000   +1.41503321
 C   +1.20621359   +0.00000000   +1.98332219
 C   +1.10569090   -0.00180553   +3.44805729
 C   +2.21044503   -0.00581702   +4.18617228
 C   +2.27973660   -0.00975957   +5.66972709
 C   +0.94954889   +0.00093633   +6.39504752
 C   +1.11101627   +0.01003345   +7.88226102
 O   +2.22777102   +0.00135131   +1.34523873
 H   +1.75060125   -1.16150415   +8.19777531
 H   +0.50893844   +0.88086048   -0.37905151
 H   +0.19845977   -0.07204475   +8.46072697
 H   +1.79256131   +0.75465529   +8.28044602
 H   +0.36012443   -0.86624279   +6.09558692
 H   +0.37521337   +0.87890313   +6.08546705
 H   +2.87746331   +0.85006358   +5.98254789
 H   +2.86004500   -0.88136548   +5.98122280
 H   +3.15321350   -0.00776110   +3.65248162
 H   +0.11280368   -0.00115563   +3.86929472
 H   +0.50293985   -0.88433786   -0.37899209
 H   -1.04080803   +0.00332059   -0.29689130
 H   +2.16605334   -1.95287713   +8.36001693
22
 * E =  +0.041 kcal/mol ; (2) 180_179_239_065_063
 C   +0.00000000   +0.00000000   +0.00000000
 O   +0.00000000   +0.00000000   +1.41509740
 C   +1.20530053   +0.00000000   +1.98380392
 C   +1.10505230   -0.00164110   +3.44909675
 C   +2.20399444   -0.01276017   +4.19470716
 C   +2.23564524   -0.01509647   +5.67926731
 C   +2.98440508   +1.18743118   +6.24851149
 C   +2.31148890   +2.49036726   +5.95353641
 O   +2.22801361   +0.00196910   +1.34747764
 H   +1.09896264   +2.43091525   +6.58994462
 H   +0.50471655   +0.88335985   -0.37890948
 H   +2.01856708   +2.65140326   +4.92178293
 H   +2.75726520   +3.36774661   +6.40724155
 H   +4.00155626   +1.19958506   +5.84599111
 H   +3.08930909   +1.06279583   +7.32564104
 H   +2.73569838   -0.92544882   +6.01328856
 H   +1.22212320   -0.04001470   +6.07676543
 H   +3.15573678   -0.01337613   +3.67450786
 H   +0.11435668   +0.00335177   +3.87794317
 H   +0.50725764   -0.88195367   -0.37876316
 H   -1.04078109   -0.00146469   -0.29677963
 H   +0.31480691   +2.35090842   +7.04339843
22
 * E =  +0.044 kcal/mol ; (3) 180_180_238_182_063
 C   +0.00000000   +0.00000000   +0.00000000
 O   +0.00000000   +0.00000000   +1.41511100
 C   +1.20599822   +0.00000000   +1.98324895
 C   +1.10629101   -0.00149746   +3.44828558
 C   +2.20472944   -0.00674178   +4.19443316
 C   +2.23278376   -0.00420630   +5.67808094
 C   +2.99018708   +1.19228524   +6.24188569
 C   +3.05873943   +1.17338710   +7.73583524
 O   +2.22805371   +0.00149163   +1.34616939
 H   +3.76196752   +0.04052749   +8.05899806
 H   +0.50216282   +0.88483817   -0.37887985
 H   +2.11772874   +1.01245287   +8.25152357
 H   +3.65957781   +1.94962329   +8.19492005
 H   +2.50592289   +2.11292513   +5.90603005
 H   +3.99846802   +1.21542605   +5.82718642
 H   +2.72484501   -0.91580555   +6.02355352
 H   +1.21772786   -0.02124623   +6.07324387
 H   +3.15670660   -0.00566339   +3.67548378
 H   +0.11510326   -0.00113303   +3.87618818
 H   +0.50992721   -0.88040778   -0.37873822
 H   -1.04076041   -0.00445519   -0.29690625
 H   +4.24003422   -0.71446354   +8.21977999
22
 * E =  +0.071 kcal/mol ; (4) 180_180_238_183_298
 C   +0.00000000   +0.00000000   +0.00000000
 O   +0.00000000   +0.00000000   +1.41506083
 C   +1.20555762   +0.00000000   +1.98365367
 C   +1.10547883   -0.00026105   +3.44877651
 C   +2.20433175   -0.00326920   +4.19418393
 C   +2.23272619   +0.00119885   +5.67799002
 C   +2.98646428   +1.20077031   +6.24013543
 C   +3.07353532   +1.17363738   +7.73293235
 O   +2.22806241   +0.00025675   +1.34710565
 H   +1.78016222   +1.23773757   +8.18516658
 H   +0.50686557   +0.88212762   -0.37889189
 H   +3.51502003   +2.04625312   +8.19979021
 H   +3.42115171   +0.24326348   +8.17015074
 H   +2.50126565   +2.12024448   +5.91337440
 H   +3.99377916   +1.22477365   +5.81439613
 H   +2.72735389   -0.91032099   +6.02164657
 H   +1.21944050   -0.01801344   +6.07596932
 H   +3.15578368   -0.00081792   +3.67408704
 H   +0.11461757   +0.00043502   +3.87729687
 H   +0.50501614   -0.88321250   -0.37884315
 H   -1.04078756   +0.00103377   -0.29681841
 H   +0.90978986   +1.29263184   +8.43887054
22
 * E =  +0.188 kcal/mol ; (5) 180_180_000_180_180
 C   +0.00000000   +0.00000000   +0.00000000
 O   +0.00000000   +0.00000000   +1.41506541
 C   +1.20569568   +0.00000000   +1.98352393
 C   +1.10514693   +0.00004647   +3.44855796
 C   +2.21063709   +0.00005724   +4.18514429
 C   +2.28208106   +0.00011363   +5.66966292
 C   +0.94591454   +0.00016467   +6.39464127
 C   +1.11228732   +0.00024339   +7.88180306
 O   +2.22777987   -0.00003427   +1.34622542
 H   -0.15542017   +0.00027938   +8.41206942
 H   +0.50610441   +0.88259849   -0.37881913
 H   +1.53373126   +0.90234194   +8.31213436
 H   +1.53372083   -0.90181399   +8.31223085
 H   +0.37218361   -0.87463999   +6.08859762
 H   +0.37220003   +0.87494649   +6.08850141
 H   +2.87178392   +0.86575904   +5.97997293
 H   +2.87175668   -0.86552514   +5.98004288
 H   +3.15320500   +0.00002513   +3.65077362
 H   +0.11284477   +0.00007501   +3.87122109
 H   +0.50606569   -0.88262269   -0.37881454
 H   -1.04078666   +0.00001913   -0.29686563
 H   -1.00318275   +0.00030143   +8.72303608
22
 * E =  +0.278 kcal/mol ; (6) 180_180_239_182_180
 C   +0.00000000   +0.00000000   +0.00000000
 O   +0.00000000   +0.00000000   +1.41516280
 C   +1.20571930   +0.00000000   +1.98347672
 C   +1.10560550   +0.00002590   +3.44866469
 C   +2.20413189   +0.00031738   +4.19467324
 C   +2.23121258   +0.00945920   +5.67893297
 C   +2.97173502   +1.22867307   +6.23335467
 C   +3.04272666   +1.21476232   +7.72739101
 O   +2.22815951   +0.00000964   +1.34709107
 H   +3.72288944   +2.35003503   +8.09365985
 H   +0.50347802   +0.88409993   -0.37879010
 H   +3.65602815   +0.43448968   +8.16538681
 H   +2.09972069   +1.34302275   +8.24779653
 H   +2.46848635   +2.13244085   +5.89233818
 H   +3.97780367   +1.25450313   +5.81484313
 H   +2.73768926   -0.89274950   +6.02746233
 H   +1.21703485   -0.02186021   +6.07409830
 H   +3.15628907   +0.00521219   +3.67618855
 H   +0.11438016   -0.00170074   +3.87647283
 H   +0.50850443   -0.88122559   -0.37875024
 H   -1.04077248   -0.00283310   -0.29683801
 H   +4.17311726   +3.10615078   +8.30003205
22
 * E =  +0.470 kcal/mol ; (7) 180_180_237_064_178
 C   +0.00000000   +0.00000000   +0.00000000
 O   +0.00000000   +0.00000000   +1.41517252
 C   +1.20549147   +0.00000000   +1.98379483
 C   +1.10520775   -0.00050099   +3.44897474
 C   +2.20373298   -0.00722444   +4.19482597
 C   +2.23618495   -0.01012273   +5.67917904
 C   +3.02226901   +1.17249431   +6.25273321
 C   +2.39425492   +2.49484117   +5.94316385
 O   +2.22814151   +0.00130043   +1.34758960
 H   +3.18286743   +3.44163371   +6.55264904
 H   +0.50274812   +0.88452807   -0.37878282
 H   +1.42968174   +2.67775437   +6.40497178
 H   +2.42282766   +2.80623085   +4.90511920
 H   +4.03950634   +1.14550479   +5.86187778
 H   +3.09887158   +1.04356345   +7.33133107
 H   +2.71483414   -0.93270288   +6.01359972
 H   +1.22229407   -0.01315083   +6.07676227
 H   +3.15565747   -0.00656173   +3.67503884
 H   +0.11417446   +0.00252433   +3.87704276
 H   +0.50939836   -0.88074546   -0.37865881
 H   -1.04074617   -0.00378447   -0.29687187
 H   +3.72229945   +4.03244006   +6.97174903
22
 * E =  +0.550 kcal/mol ; (8) 180_180_353_289_293
 C   +0.00000000   +0.00000000   +0.00000000
 O   +0.00000000   +0.00000000   +1.41505409
 C   +1.20610348   +0.00000000   +1.98373137
 C   +1.10443846   -0.00130456   +3.44833389
 C   +2.20903361   -0.00412602   +4.18683132
 C   +2.29199465   -0.03354941   +5.67170623
 C   +0.98063957   +0.09814610   +6.42460989
 C   +0.38957839   +1.47282484   +6.35201092
 O   +2.22791872   +0.00125931   +1.34614733
 H   +1.25918821   +2.27146580   +7.03932870
 H   +0.50688622   +0.88207956   -0.37895447
 H   -0.53055426   +1.62287933   +6.90473850
 H   +0.37514155   +1.94184132   +5.37487538
 H   +1.14689434   -0.16281875   +7.46934620
 H   +0.26640506   -0.64002620   +6.04913491
 H   +2.97831106   +0.75313386   +5.99232937
 H   +2.78620187   -0.96740455   +5.94836349
 H   +3.14966850   -0.00219552   +3.64908307
 H   +0.11060248   -0.00032522   +3.86792034
 H   +0.50511085   -0.88311946   -0.37893734
 H   -1.04078877   +0.00095480   -0.29691245
 H   +1.86309303   +2.75199579   +7.52353213
22
 * E =  +0.655 kcal/mol ; (9) 180_180_241_296_299
 C   +0.00000000   +0.00000000   +0.00000000
 O   +0.00000000   +0.00000000   +1.41509461
 C   +1.20571387   +0.00000000   +1.98346632
 C   +1.10617269   +0.00074113   +3.44855159
 C   +2.20536215   -0.00650323   +4.19418564
 C   +2.22405391   +0.00027920   +5.67903930
 C   +2.91799748   +1.22717112   +6.26929744
 C   +4.37707620   +1.31758662   +5.94841147
 O   +2.22804276   +0.00051229   +1.34660941
 H   +4.94028188   +0.18768981   +6.48608644
 H   +0.50743348   +0.88186237   -0.37876312
 H   +4.92200519   +2.10080438   +6.46219536
 H   +4.65355938   +1.24289126   +4.90287684
 H   +2.78894472   +1.20982193   +7.35102291
 H   +2.40776103   +2.12747566   +5.91699814
 H   +2.74814927   -0.89133800   +6.02904706
 H   +1.20521185   -0.05691169   +6.05703382
 H   +3.15282755   -0.01733165   +3.66917051
 H   +0.11495977   +0.00465711   +3.87656669
 H   +0.50482068   -0.88337108   -0.37871504
 H   -1.04075003   +0.00143088   -0.29692643
 H   +5.26375527   -0.56695482   +6.87434580
22
 * E =  +0.662 kcal/mol ; (10) 180_000_000_179_062
 C   +0.00000000   +0.00000000   +0.00000000
 O   +0.00000000   +0.00000000   +1.41497560
 C   +1.20794812   +0.00000000   +1.98086990
 C   +1.17334200   -0.00140703   +3.44732218
 C   +0.04957665   -0.00409456   +4.15737530
 C   -0.04468857   -0.00689679   +5.64104112
 C   +1.27256455   -0.00059645   +6.38953290
 C   +1.08372532   +0.00996727   +7.87345678
 O   +2.22621535   +0.00133125   +1.33744357
 H   +0.42977006   -1.15703477   +8.17718469
 H   +0.50531282   +0.88258489   -0.37978117
 H   +0.40028144   +0.75944377   +8.25912650
 H   +1.98496219   -0.07846894   +8.46842047
 H   +1.85585526   +0.87496611   +6.09033012
 H   +1.86413577   -0.87000161   +6.10128819
 H   -0.63271212   -0.87648894   +5.94357502
 H   -0.64413890   +0.85547477   +5.94351791
 H   -0.88830664   -0.00560170   +3.61757200
 H   +2.15039467   -0.00113620   +3.90398590
 H   +0.50512049   -0.88271023   -0.37972760
 H   -1.04110052   +0.00003013   -0.29628841
 H   +0.00496468   -1.94487434   +8.33164225
22
 * E =  +0.673 kcal/mol ; (11) 180_000_121_178_297
 C   +0.00000000   +0.00000000   +0.00000000
 O   +0.00000000   +0.00000000   +1.41505559
 C   +1.20764457   +0.00000000   +1.98110265
 C   +1.17054664   -0.00031468   +3.44785296
 C   +0.05124543   -0.00038653   +4.16363380
 C   -0.00402519   +0.00458486   +5.64766381
 C   -0.75493163   +1.21187684   +6.19664973
 C   -0.85408160   +1.19376519   +7.68890810
 O   +2.22665822   +0.00059891   +1.33914795
 H   -1.58432535   +0.07355848   +7.99570938
 H   +0.50692324   +0.88163325   -0.37982622
 H   -1.45017848   +1.98034660   +8.13641710
 H   +0.07319361   +1.01563491   +8.22336056
 H   -1.75464560   +1.25013577   +5.76229734
 H   -0.25030452   +2.12516833   +5.87089907
 H   +1.00400743   -0.02428967   +6.05952527
 H   -0.51290170   -0.90024388   +5.98640215
 H   -0.89475804   +0.00403597   +3.63625353
 H   +2.14505188   -0.00278611   +3.91247786
 H   +0.50317743   -0.88379378   -0.37978539
 H   -1.04110459   +0.00199956   -0.29618602
 H   -2.08007054   -0.67256575   +8.14385808
22
 * E =  +0.726 kcal/mol ; (12) 180_178_125_296_073
 C   +0.00000000   +0.00000000   +0.00000000
 O   +0.00000000   +0.00000000   +1.41483619
 C   +1.20671638   +0.00000000   +1.98259490
 C   +1.10746147   -0.00176020   +3.44733558
 C   +2.20602299   -0.03528076   +4.19193568
 C   +2.23563826   -0.03467064   +5.67671996
 C   +3.01140747   -1.21038321   +6.26130032
 C   +2.40698646   -2.54521187   +5.95443488
 O   +2.22802718   +0.00221706   +1.34468112
 H   +2.64679262   -2.81942497   +4.63063058
 H   +0.50545834   +0.88295080   -0.37903366
 H   +1.32426306   -2.59873951   +6.00510927
 H   +2.88876754   -3.39498421   +6.42409190
 H   +3.06684280   -1.07905355   +7.34452572
 H   +4.04283513   -1.18255410   +5.90621142
 H   +1.21908671   -0.03025848   +6.06902535
 H   +2.70897641   +0.89036448   +6.01074102
 H   +3.15697195   -0.06683328   +3.67198386
 H   +0.11680689   +0.01989107   +3.87583122
 H   +0.50667369   -0.88226092   -0.37884824
 H   -1.04077841   -0.00069249   -0.29707226
 H   +2.84735020   -2.99885587   +3.76634261
22
 * E =  +0.774 kcal/mol ; (13) 180_000_239_065_064
 C   +0.00000000   +0.00000000   +0.00000000
 O   +0.00000000   +0.00000000   +1.41509865
 C   +1.20814660   +0.00000000   +1.98076460
 C   +1.17181790   +0.00104917   +3.44778152
 C   +0.05230237   +0.00779560   +4.16354584
 C   -0.00653530   +0.00962782   +5.64846144
 C   -0.75599706   -1.19853410   +6.20436400
 C   -0.06320019   -2.49532390   +5.92862283
 O   +2.22653412   -0.00172676   +1.33808802
 H   +1.12726935   -2.42541091   +6.60258824
 H   +0.50993135   +0.87995836   -0.37963010
 H   +0.26378138   -2.65246246   +4.90656164
 H   -0.51485244   -3.37719712   +6.36755724
 H   -1.76427918   -1.22159211   +5.78018722
 H   -0.88609587   -1.07234353   +7.27861181
 H   -0.51800897   +0.91662168   +5.97417368
 H   +0.99997106   +0.04137987   +6.06284122
 H   -0.89368121   +0.00539339   +3.63533816
 H   +2.14601113   -0.00107979   +3.91295512
 H   +0.50042172   -0.88534678   -0.37986824
 H   -1.04106879   +0.00551229   -0.29628891
 H   +1.89525028   -2.33816648   +7.08203011
22
 * E =  +0.777 kcal/mol ; (14) 180_000_121_177_062
 C   +0.00000000   +0.00000000   +0.00000000
 O   +0.00000000   +0.00000000   +1.41500094
 C   +1.20804754   +0.00000000   +1.98075171
 C   +1.17130714   +0.00067028   +3.44761426
 C   +0.05145976   +0.00088252   +4.16243595
 C   -0.00493906   +0.00657443   +5.64658649
 C   -0.75975425   +1.21198341   +6.19429172
 C   -0.87546204   +1.18631361   +7.68524816
 O   +2.22658324   -0.00040458   +1.33822110
 H   +0.40924293   +1.24176410   +8.16219732
 H   +0.50680038   +0.88172161   -0.37980063
 H   -1.23800219   +0.25868179   +8.11610919
 H   -1.31960884   +2.06228868   +8.14319264
 H   -1.75893994   +1.24387806   +5.74985184
 H   -0.26103748   +2.12738932   +5.87653074
 H   +1.00121328   -0.01890967   +6.06178124
 H   -0.51113688   -0.90141037   +5.98260907
 H   -0.89371179   +0.00554764   +3.63334253
 H   +2.14543632   -0.00050204   +3.91290651
 H   +0.50348605   -0.88362268   -0.37980572
 H   -1.04108331   +0.00183632   -0.29631013
 H   +1.27472624   +1.29109934   +8.43294771
22
 * E =  +0.909 kcal/mol ; (15) 180_000_121_178_180
 C   +0.00000000   +0.00000000   +0.00000000
 O   +0.00000000   +0.00000000   +1.41517414
 C   +1.20754520   +0.00000000   +1.98111738
 C   +1.17031559   +0.00196854   +3.44801437
 C   +0.05083284   +0.00453226   +4.16348829
 C   -0.00348519   +0.01635684   +5.64815491
 C   -0.75045792   +1.23830416   +6.18712787
 C   -0.84691598   +1.22878282   +7.67977383
 O   +2.22668143   -0.00143351   +1.33949073
 H   -1.53490281   +2.36422495   +8.03029212
 H   +0.50746451   +0.88140475   -0.37959054
 H   +0.08691937   +1.35988285   +8.21565165
 H   -1.46662144   +0.44903586   +8.10961819
 H   -1.74967068   +1.26527190   +5.75208713
 H   -0.23954849   +2.14010807   +5.85232165
 H   +1.00394132   -0.01593279   +6.05994055
 H   -0.51702532   -0.88430620   +5.99027950
 H   -0.89536029   +0.00969967   +3.63656558
 H   +2.14475820   +0.00003191   +3.91277353
 H   +0.50289947   -0.88402166   -0.37962274
 H   -1.04107424   +0.00261355   -0.29621087
 H   -1.99041001   +3.12027529   +8.22524686
22
 * E =  +0.925 kcal/mol ; (16) 180_000_000_180_180
 C   +0.00000000   +0.00000000   +0.00000000
 O   +0.00000000   +0.00000000   +1.41501459
 C   +1.20811174   +0.00000000   +1.98068822
 C   +1.17408046   +0.00000798   +3.44747912
 C   +0.05043392   +0.00001897   +4.15723392
 C   -0.04516991   +0.00002831   +5.64200612
 C   +1.27788641   +0.00002670   +6.39048896
 C   +1.08374165   +0.00003824   +7.87435777
 O   +2.22619358   -0.00000712   +1.33727557
 H   +2.34117854   +0.00003628   +8.42840220
 H   +0.50524221   +0.88265354   -0.37969418
 H   +0.65438129   -0.90205734   +8.29682775
 H   +0.65438980   +0.90214391   +8.29681483
 H   +1.85730348   +0.87469821   +6.09521289
 H   +1.85729446   -0.87465504   +6.09522552
 H   -0.63958083   -0.86582009   +5.94272246
 H   -0.63957264   +0.86588600   +5.94271188
 H   -0.88787769   +0.00002160   +3.61798055
 H   +2.15116299   +0.00000483   +3.90402363
 H   +0.50531109   -0.88261362   -0.37969526
 H   -1.04108846   -0.00003972   -0.29631331
 H   +3.18261602   +0.00003472   +8.75591611
22
 * E =  +1.017 kcal/mol ; (17) 180_180_352_289_182
 C   +0.00000000   +0.00000000   +0.00000000
 O   +0.00000000   +0.00000000   +1.41510501
 C   +1.20567375   +0.00000000   +1.98400235
 C   +1.10335298   -0.00161727   +3.44869069
 C   +2.20726400   -0.00760356   +4.18748781
 C   +2.28970598   -0.03964133   +5.67209838
 C   +0.97909722   +0.11438947   +6.43327168
 C   +0.40720623   +1.49735270   +6.36077448
 O   +2.22798073   +0.00196452   +1.34715047
 H   -0.73026403   +1.47342475   +7.12918466
 H   +0.50482113   +0.88332508   -0.37883248
 H   +0.02697196   +1.82031252   +5.39907983
 H   +0.99043267   +2.26802295   +6.85358299
 H   +1.16107652   -0.14034370   +7.47626732
 H   +0.25673417   -0.61364483   +6.06409155
 H   +2.99530201   +0.72942911   +5.99242571
 H   +2.76193839   -0.98579936   +5.94855850
 H   +3.14814782   -0.00890810   +3.65005077
 H   +0.10921445   -0.00283320   +3.86727662
 H   +0.50730796   -0.88192143   -0.37875322
 H   -1.04077610   -0.00148713   -0.29686087
 H   -1.46742561   +1.41487845   +7.65001676
22
 * E =  +1.127 kcal/mol ; (18) 180_000_237_065_179
 C   +0.00000000   +0.00000000   +0.00000000
 O   +0.00000000   +0.00000000   +1.41515804
 C   +1.20756197   +0.00000000   +1.98147180
 C   +1.16956989   +0.00068376   +3.44836821
 C   +0.04927765   +0.00739807   +4.16242911
 C   -0.01260315   +0.01086773   +5.64699647
 C   -0.80336008   -1.17527694   +6.20641650
 C   -0.15986435   -2.49441105   +5.91561767
 O   +2.22678154   -0.00126979   +1.34002882
 H   -0.96233549   -3.44514194   +6.50070949
 H   +0.50592332   +0.88228123   -0.37960197
 H   +0.79141736   -2.67269649   +6.40569975
 H   -0.15522502   -2.80577283   +4.87717429
 H   -1.81208441   -1.15624563   +5.79312838
 H   -0.90543752   -1.04389460   +7.28257122
 H   -0.50112025   +0.93149922   +5.97231917
 H   +0.99381644   +0.01865948   +6.06284238
 H   -0.89577917   +0.00621776   +3.63258825
 H   +2.14342788   -0.00190253   +3.91417882
 H   +0.50431068   -0.88314378   -0.37976808
 H   -1.04107929   +0.00099695   -0.29620850
 H   -1.51263521   -4.03825889   +6.90194660
22
 * E =  +1.213 kcal/mol ; (19) 180_000_353_289_294
 C   +0.00000000   +0.00000000   +0.00000000
 O   +0.00000000   +0.00000000   +1.41499138
 C   +1.20749868   +0.00000000   +1.98152749
 C   +1.17276672   -0.00085923   +3.44796976
 C   +0.04885669   +0.00380338   +4.15785463
 C   -0.05975251   +0.03149706   +5.64270939
 C   +1.23617041   -0.11357660   +6.41937802
 C   +1.81775328   -1.49252851   +6.35235231
 O   +2.22630703   +0.00054355   +1.33884387
 H   +0.92413814   -2.28796916   +7.01312291
 H   +0.50285215   +0.88398662   -0.37978862
 H   +2.72277754   -1.65328441   +6.92645471
 H   +1.85303496   -1.95572375   +5.37304562
 H   +1.05103139   +0.14413051   +7.46170384
 H   +1.96347167   +0.62070161   +6.06198862
 H   -0.75789872   -0.75018145   +5.94972273
 H   -0.55007669   +0.96931258   +5.91290212
 H   -0.88677520   +0.00548063   +3.61406311
 H   +2.15053725   -0.00531172   +3.90367916
 H   +0.50738715   -0.88139719   -0.37972693
 H   -1.04111105   -0.00263064   -0.29618219
 H   +0.30374650   -2.76569876   +7.47857778
22
 * E =  +1.237 kcal/mol ; (20) 181_002_235_062_286
 C   +0.00000000   +0.00000000   +0.00000000
 O   +0.00000000   +0.00000000   +1.41468694
 C   +1.20708286   +0.00000000   +1.98098407
 C   +1.16897969   -0.01628402   +3.44733762
 C   +0.04881737   -0.06079042   +4.15972835
 C   -0.00949718   -0.08045889   +5.64465037
 C   -0.80519851   -1.25884873   +6.19556630
 C   -0.22194650   -2.59412359   +5.85178570
 O   +2.22664441   +0.01194511   +1.33958267
 H   -0.48089597   -2.83042191   +4.52457083
 H   +0.50393526   +0.88330070   -0.38007660
 H   -0.71091474   -3.44869482   +6.30495691
 H   +0.86033399   -2.66392045   +5.88733014
 H   -1.83552889   -1.20498110   +5.83965552
 H   -0.86163425   -1.15681169   +7.28181711
 H   -0.48017405   +0.84344637   +5.98543606
 H   +1.00013211   -0.09132392   +6.05403343
 H   -0.89518781   -0.08926089   +3.62948836
 H   +2.14250796   +0.00274766   +3.91353638
 H   +0.50601783   -0.88232519   -0.37946945
 H   -1.04111980   -0.00168052   -0.29618776
 H   -0.69793078   -2.98288508   +3.65882895
22
 * E =  +1.312 kcal/mol ; (21) 180_000_243_297_300
 C   +0.00000000   +0.00000000   +0.00000000
 O   +0.00000000   +0.00000000   +1.41510710
 C   +1.20781251   +0.00000000   +1.98109795
 C   +1.17084905   +0.00136448   +3.44789675
 C   +0.05108598   +0.00351998   +4.16366956
 C   +0.00626500   -0.00112333   +5.64920650
 C   -0.66384138   -1.24474555   +6.23173940
 C   -2.10931593   -1.38782607   +5.87104866
 O   +2.22662762   -0.00185304   +1.33889172
 H   -2.72521246   -0.26431489   +6.36346915
 H   +0.50358325   +0.88362019   -0.37964699
 H   -2.64518504   -2.17646119   +6.38608223
 H   -2.35579956   -1.34596734   +4.81609493
 H   -0.56595567   -1.21369938   +7.31634174
 H   -0.11436267   -2.13049681   +5.90225705
 H   -0.54609319   +0.87735953   +5.98850539
 H   +1.01698549   +0.08280559   +6.04345469
 H   -0.89074528   +0.00882289   +3.63099530
 H   +2.14557912   +0.00286753   +3.91225309
 H   +0.50676598   -0.88177290   -0.37972923
 H   -1.04107098   -0.00154591   -0.29628607
 H   -3.08773527   +0.48805172   +6.72025022
22
 * E =  +1.443 kcal/mol ; (22) 180_000_239_297_186
 C   +0.00000000   +0.00000000   +0.00000000
 O   +0.00000000   +0.00000000   +1.41517298
 C   +1.20777345   +0.00000000   +1.98117989
 C   +1.17082586   -0.00009480   +3.44807861
 C   +0.05129549   +0.00047232   +4.16378902
 C   +0.00397144   -0.00170695   +5.64893590
 C   -0.73739783   -1.21111521   +6.22889841
 C   -2.18310040   -1.26965951   +5.84457750
 O   +2.22669396   -0.00003838   +1.33925808
 H   -2.71890269   -2.31313537   +6.55024002
 H   +0.50587182   +0.88228237   -0.37968508
 H   -2.40422572   -1.56036583   +4.82397693
 H   -2.79393798   -0.43880030   +6.18254612
 H   -0.65356913   -1.16583212   +7.31423025
 H   -0.23182158   -2.12229940   +5.91236714
 H   -0.50048969   +0.90660309   +5.98523849
 H   +1.01607519   +0.02858552   +6.04893825
 H   -0.89270857   +0.00227933   +3.63443219
 H   +2.14564352   +0.00032200   +3.91223727
 H   +0.50429638   -0.88315588   -0.37977032
 H   -1.04108503   +0.00096268   -0.29622973
 H   -3.03922999   -3.00499355   +7.03995668
22
 * E =  +1.747 kcal/mol ; (23) 180_000_352_289_183
 C   +0.00000000   +0.00000000   +0.00000000
 O   +0.00000000   +0.00000000   +1.41505494
 C   +1.20779843   +0.00000000   +1.98112165
 C   +1.17348163   +0.00241265   +3.44764379
 C   +0.04974073   +0.01133962   +4.15708139
 C   -0.06015642   +0.04640236   +5.64126895
 C   +1.23491786   -0.10576473   +6.42864572
 C   +1.80983704   -1.48827181   +6.37085704
 O   +2.22627608   -0.00157422   +1.33814521
 H   +2.91812191   -1.46602934   +7.18012066
 H   +0.50446512   +0.88312578   -0.37962069
 H   +2.22506626   -1.80817754   +5.42279502
 H   +1.20988517   -2.26065385   +6.84048707
 H   +1.03003861   +0.15006995   +7.46716984
 H   +1.96434974   +0.62266178   +6.07472603
 H   -0.77101627   -0.72267988   +5.94991081
 H   -0.53750303   +0.99304042   +5.90718299
 H   -0.88552646   +0.01359914   +3.61246983
 H   +2.15142841   +0.00259335   +3.90267328
 H   +0.50601809   -0.88219753   -0.37969083
 H   -1.04109240   -0.00086131   -0.29625626
 H   +3.63421115   -1.40857425   +7.72974906
22
 * E =  +1.840 kcal/mol ; (24) 180_179_348_284_072
 C   +0.00000000   +0.00000000   +0.00000000
 O   +0.00000000   +0.00000000   +1.41459961
 C   +1.20566869   +0.00000000   +1.98348904
 C   +1.10404900   +0.00674857   +3.44809928
 C   +2.20876994   -0.01483223   +4.18410508
 C   +2.29889493   -0.05005608   +5.66869243
 C   +1.02299485   +0.20902039   +6.45030780
 C   +0.61056059   +1.64874519   +6.51179902
 O   +2.22756008   -0.00626255   +1.34548318
 H   +0.13589196   +2.09713744   +5.29509104
 H   +0.50723947   +0.88198774   -0.37883014
 H   +1.41466164   +2.35537614   +6.69070525
 H   -0.25799066   +1.85263157   +7.12790399
 H   +1.18275753   -0.13742198   +7.47482297
 H   +0.20887496   -0.40591721   +6.06550848
 H   +3.06619932   +0.66007585   +5.98366159
 H   +2.69989332   -1.02993788   +5.93861009
 H   +3.14780680   -0.03938349   +3.64411787
 H   +0.11116655   +0.03626590   +3.86667401
 H   +0.50461254   -0.88323228   -0.37953937
 H   -1.04082208   +0.00185085   -0.29694491
 H   -0.21653780   +2.43758482   +4.53962258
22
 * E =  +2.644 kcal/mol ; (25) 180_358_348_283_070
 C   +0.00000000   +0.00000000   +0.00000000
 O   +0.00000000   +0.00000000   +1.41458941
 C   +1.20868835   +0.00000000   +1.98046332
 C   +1.17536459   +0.00612428   +3.44686037
 C   +0.05256844   +0.05337115   +4.15500976
 C   -0.06111027   +0.10920514   +5.63902450
 C   +1.19792595   -0.15884038   +6.44466540
 C   +1.58042472   -1.60489647   +6.54006263
 O   +2.22592529   -0.00148026   +1.33566230
 H   +2.01781032   -2.10157869   +5.32731198
 H   +0.50715070   +0.88135117   -0.38036678
 H   +0.76385549   -2.28672014   +6.75552046
 H   +2.45553144   -1.81069142   +7.14607295
 H   +1.02948551   +0.21061518   +7.45974624
 H   +2.02928382   +0.43259530   +6.06070389
 H   -0.84373304   -0.58575001   +5.95028151
 H   -0.45116214   +1.09849497   +5.88999279
 H   -0.88153694   +0.08635889   +3.60960314
 H   +2.15224516   -0.03195754   +3.90101425
 H   +0.50285198   -0.88392384   -0.37999520
 H   -1.04115158   +0.00226800   -0.29638140
 H   +2.33953949   -2.47643850   +4.57468147
22
 * E =  +8.941 kcal/mol ; (26) 001_181_121_296_299
 C   +0.00000000   +0.00000000   +0.00000000
 O   +0.00000000   +0.00000000   +1.40843126
 C   +1.13621190   +0.00000000   +2.11681926
 C   +2.41997653   +0.01812316   +1.38467420
 C   +3.55850400   -0.00673520   +2.07092105
 C   +4.91812109   +0.01304143   +1.47600364
 C   +5.74240418   +1.20899442   +1.94748895
 C   +5.16822544   +2.52257633   +1.52063174
 O   +1.06542354   -0.01194182   +3.31459610
 H   +5.16756694   +2.49943287   +0.14870079
 H   +0.46576930   +0.89751845   -0.40073576
 H   +5.77519616   +3.39565436   +1.72908387
 H   +4.11796014   +2.67684744   +1.74296019
 H   +6.75852801   +1.10912358   +1.56832782
 H   +5.82260759   +1.18134376   +3.03805890
 H   +4.85466198   +0.01601906   +0.38877834
 H   +5.43636564   -0.90179187   +1.76721745
 H   +3.48282711   -0.03523010   +3.15214456
 H   +2.43643210   +0.05159100   +0.30695749
 H   +0.49151493   -0.88369008   -0.40056692
 H   -1.04276573   -0.01492020   -0.29191163
 H   +5.19689357   +2.44447588   -0.75823167
22
 * E =  +9.026 kcal/mol ; (27) 000_180_238_182_298
 C   +0.00000000   +0.00000000   +0.00000000
 O   +0.00000000   +0.00000000   +1.40821031
 C   +1.13646917   +0.00000000   +2.11666241
 C   +2.42019405   +0.00249174   +1.38447205
 C   +3.55832856   -0.00289919   +2.07145571
 C   +4.91694650   -0.00673079   +1.47588473
 C   +5.73928746   -1.21227221   +1.91688818
 C   +7.12861773   -1.18815154   +1.36391439
 O   +1.06527880   -0.00250785   +3.31437885
 H   +6.98822978   -1.24586602   +0.00065611
 H   +0.47496173   +0.89272486   -0.40070732
 H   +7.73462671   -2.06429404   +1.56211859
 H   +7.67574649   -0.26064707   +1.49759847
 H   +5.23433995   -2.12839030   +1.61130654
 H   +5.77886206   -1.24101056   +3.00944230
 H   +5.43793220   +0.90066808   +1.79017324
 H   +4.85701393   +0.02154422   +0.38890040
 H   +3.48180888   -0.01333741   +3.15262749
 H   +2.43624582   +0.00967456   +0.30623206
 H   +0.48235041   -0.88873254   -0.40069625
 H   -1.04282855   -0.00424401   -0.29210161
 H   +6.84478357   -1.29614385   -0.89485246
22
 * E =  +9.068 kcal/mol ; (28) 359_179_359_180_297
 C   +0.00000000   +0.00000000   +0.00000000
 O   +0.00000000   +0.00000000   +1.40774190
 C   +1.13679290   +0.00000000   +2.11685110
 C   +2.41976413   -0.01909696   +1.38405124
 C   +3.55370127   +0.00933729   +2.07897754
 C   +4.92983152   -0.00383273   +1.52272387
 C   +5.04097594   -0.07081353   +0.01319491
 C   +6.46250674   -0.09115093   -0.45287911
 O   +1.06362981   +0.01456203   +3.31431276
 H   +7.00570971   +1.10116752   -0.04738242
 H   +0.49509721   +0.88163081   -0.40099186
 H   +6.61280925   -0.05095611   -1.52516243
 H   +7.10991861   -0.81352478   +0.03321392
 H   +4.52257033   +0.77908201   -0.43243478
 H   +4.52619254   -0.96571023   -0.34891019
 H   +5.46453569   -0.84559796   +1.96984930
 H   +5.45172493   +0.88299425   +1.88989428
 H   +3.46129509   +0.04679287   +3.15734968
 H   +2.42864381   -0.05529680   +0.30748606
 H   +0.46179475   -0.89964704   -0.40102683
 H   -1.04264526   +0.01916492   -0.29236938
 H   +7.31771288   +1.90695940   +0.23185925
22
 * E =  +9.087 kcal/mol ; (29) 000_180_238_182_062
 C   +0.00000000   +0.00000000   +0.00000000
 O   +0.00000000   +0.00000000   +1.40800236
 C   +1.13659850   +0.00000000   +2.11674537
 C   +2.42035630   +0.00054937   +1.38481035
 C   +3.55861398   +0.00514875   +2.07182223
 C   +4.91780253   +0.00196006   +1.47801246
 C   +5.74978884   -1.18830547   +1.94174944
 C   +7.13628368   -1.16865785   +1.38120029
 O   +1.06496018   -0.00109834   +3.31431900
 H   +7.71685483   -0.02689757   +1.87308584
 H   +0.47697019   +0.89158717   -0.40092517
 H   +7.21252013   -1.01962142   +0.30913260
 H   +7.80745805   -1.93759580   +1.74505470
 H   +5.24611351   -2.11345833   +1.64978176
 H   +5.79273385   -1.20151299   +3.03113686
 H   +5.43334033   +0.91720914   +1.77660696
 H   +4.85638411   +0.01182762   +0.39018785
 H   +3.48233046   +0.00487093   +3.15299699
 H   +2.43603298   -0.00056419   +0.30650271
 H   +0.48013319   -0.88998201   -0.40076125
 H   -1.04282926   -0.00185510   -0.29220521
 H   +8.05688145   +0.73458175   +2.23173313
22
 * E =  +9.177 kcal/mol ; (30) 000_180_000_180_180
 C   +0.00000000   +0.00000000   +0.00000000
 O   +0.00000000   +0.00000000   +1.40805657
 C   +1.13616586   +0.00000000   +2.11716239
 C   +2.41977392   -0.00004190   +1.38455731
 C   +3.55276839   -0.00001569   +2.08109871
 C   +4.93015985   -0.00005299   +1.52463228
 C   +5.03444685   -0.00013044   +0.00823289
 C   +6.45564221   -0.00016744   -0.46046381
 O   +1.06352084   +0.00003016   +3.31479563
 H   +6.40533172   -0.00023580   -1.83351425
 H   +0.47875686   +0.89070471   -0.40078159
 H   +7.02226360   -0.90235826   -0.25720757
 H   +7.02228081   +0.90203299   -0.25729823
 H   +4.51839655   +0.87531185   -0.38665087
 H   +4.51838010   -0.87560300   -0.38656226
 H   +5.45776391   -0.86521231   +1.93267645
 H   +5.45777654   +0.86513975   +1.93258922
 H   +3.46017199   +0.00003688   +3.16025930
 H   +2.43024422   -0.00009371   +0.30738581
 H   +0.47871715   -0.89072580   -0.40078240
 H   -1.04279863   +0.00002374   -0.29225371
 H   +6.32763759   -0.00028005   -2.73319147
22
 * E =  +9.512 kcal/mol ; (31) 001_181_123_296_182
 C   +0.00000000   +0.00000000   +0.00000000
 O   +0.00000000   +0.00000000   +1.40815312
 C   +1.13636020   +0.00000000   +2.11668814
 C   +2.42036219   +0.01545900   +1.38495734
 C   +3.55801003   -0.00755878   +2.07237897
 C   +4.91981239   +0.00473025   +1.48272191
 C   +5.76891867   +1.17326244   +1.99228779
 C   +5.22475339   +2.50828932   +1.59145306
 O   +1.06521939   -0.01043840   +3.31431313
 H   +6.11189731   +3.43958582   +2.07481393
 H   +0.46570386   +0.89769291   -0.40061956
 H   +4.29689484   +2.80838063   +2.06514257
 H   +5.23689617   +2.72179198   +0.52770145
 H   +6.78049623   +1.05553029   +1.60685119
 H   +5.83927305   +1.11344273   +3.07826498
 H   +4.86111976   +0.03143417   +0.39537323
 H   +5.42185335   -0.92594283   +1.75464461
 H   +3.48047576   -0.03281191   +3.15350955
 H   +2.43688876   +0.04450082   +0.30710788
 H   +0.49145645   -0.88370043   -0.40076234
 H   -1.04271249   -0.01481314   -0.29215922
 H   +6.72148374   +4.02009398   +2.40224060
22
 * E =  +9.690 kcal/mol ; (32) 001_182_007_071_067
 C   +0.00000000   +0.00000000   +0.00000000
 O   +0.00000000   +0.00000000   +1.40773817
 C   +1.13686644   +0.00000000   +2.11689882
 C   +2.41944047   +0.01895233   +1.38343023
 C   +3.55375695   -0.01391048   +2.07769985
 C   +4.93646046   -0.03032250   +1.53130055
 C   +5.07834431   +0.15146392   +0.03125761
 C   +4.77372865   +1.54458699   -0.42883236
 O   +1.06383290   -0.01462187   +3.31431917
 H   +5.76969271   +2.31682341   +0.09387659
 H   +0.46249191   +0.89920732   -0.40123886
 H   +3.88767649   +2.00899570   -0.01111800
 H   +4.88668996   +1.72940994   -1.49079291
 H   +4.43928344   -0.56832705   -0.48828383
 H   +6.09696543   -0.10364724   -0.25929486
 H   +5.38970375   -0.97629820   +1.83563290
 H   +5.51651738   +0.73653077   +2.04926923
 H   +3.45724400   -0.05003441   +3.15589998
 H   +2.42620654   +0.05839201   +0.30673535
 H   +0.49452263   -0.88197773   -0.40099683
 H   -1.04264204   -0.01832011   -0.29240285
 H   +6.46843724   +2.77968011   +0.45237265
22
 * E =  +9.692 kcal/mol ; (33) 001_182_119_065_060
 C   +0.00000000   +0.00000000   +0.00000000
 O   +0.00000000   +0.00000000   +1.40805294
 C   +1.13629762   +0.00000000   +2.11691575
 C   +2.42040334   +0.03041648   +1.38612883
 C   +3.55827701   -0.00099410   +2.07372129
 C   +4.91492047   +0.03436895   +1.47271671
 C   +5.74217185   +1.23866647   +1.92182656
 C   +6.06285706   +1.24809949   +3.38374677
 O   +1.06444545   -0.02133749   +3.31442847
 H   +6.78464185   +0.10213637   +3.60483907
 H   +0.45618278   +0.90255671   -0.40075582
 H   +5.23012006   +1.13791686   +4.06886348
 H   +6.75999870   +2.01309057   +3.70459573
 H   +5.20970680   +2.15551284   +1.65568231
 H   +6.66996890   +1.25087396   +1.35085826
 H   +4.83687042   +0.03158285   +0.38710188
 H   +5.44953062   -0.87341098   +1.75986782
 H   +3.47418005   -0.05477617   +3.15198534
 H   +2.43666863   +0.07756494   +0.30876865
 H   +0.50084023   -0.87839932   -0.40075781
 H   -1.04249541   -0.02577221   -0.29222103
 H   +7.27060703   -0.66015755   +3.69013964
22
 * E =  +9.800 kcal/mol ; (34) 000_179_122_063_174
 C   +0.00000000   +0.00000000   +0.00000000
 O   +0.00000000   +0.00000000   +1.40812462
 C   +1.13643670   +0.00000000   +2.11659652
 C   +2.42040677   -0.00539630   +1.38466034
 C   +3.55824341   +0.00486244   +2.07253305
 C   +4.91576773   +0.00351568   +1.47313925
 C   +5.76336314   +1.20825575   +1.89757851
 C   +6.03908299   +1.25995759   +3.36814176
 O   +1.06528333   +0.00531892   +3.31428092
 H   +6.91347790   +2.29816647   +3.54839630
 H   +0.48276460   +0.88854744   -0.40067041
 H   +6.60296759   +0.42478602   +3.77056087
 H   +5.21540265   +1.55316523   +4.00858312
 H   +5.26422121   +2.12308803   +1.58119352
 H   +6.70616608   +1.16046364   +1.35368228
 H   +4.84378002   -0.02573481   +0.38690008
 H   +5.43199922   -0.90707585   +1.78467036
 H   +3.47833874   +0.01421883   +3.15265995
 H   +2.43594381   -0.01700402   +0.30633219
 H   +0.47438195   -0.89303695   -0.40074718
 H   -1.04281055   +0.00483176   -0.29215145
 H   +7.49782973   +2.98590483   +3.62467654
22
 * E = +10.094 kcal/mol ; (35) 357_175_120_063_284
 C   +0.00000000   +0.00000000   +0.00000000
 O   +0.00000000   +0.00000000   +1.40772052
 C   +1.13803558   +0.00000000   +2.11564482
 C   +2.41906697   -0.06343203   +1.38230759
 C   +3.56070493   +0.04014691   +2.05646762
 C   +4.91193705   -0.02719275   +1.44440609
 C   +5.74890733   +1.23151026   +1.65762186
 C   +6.05745008   +1.53380724   +3.09159402
 O   +1.06833263   +0.04717471   +3.31207557
 H   +4.92812595   +2.04736442   +3.66868711
 H   +0.53392814   +0.85852094   -0.40107069
 H   +6.74392949   +2.35668004   +3.25348030
 H   +6.28091709   +0.67874002   +3.72196840
 H   +5.24791941   +2.08540668   +1.20017200
 H   +6.68619559   +1.10560855   +1.11053503
 H   +4.82457337   -0.22949900   +0.37836246
 H   +5.44706412   -0.87143173   +1.88560964
 H   +3.48895551   +0.17754039   +3.12815909
 H   +2.42926978   -0.19822259   +0.31212542
 H   +0.42173966   -0.91929593   -0.40087665
 H   -1.04075568   +0.06457927   -0.29271713
 H   +4.17831453   +2.42114913   +4.01777480
