22
 * E =  +0.000 kcal/mol ; (1) 180_180_000_180
 C   +0.00000000   +0.00000000   +0.00000000
 O   +0.00000000   +0.00000000   +1.41487937
 C   +1.20909502   +0.00000000   +1.98099952
 C   +1.09054266   -0.00000586   +3.44721633
 C   +2.13577267   -0.00000153   +4.25185703
 C   +2.26006840   -0.00000560   +5.71761762
 C   +0.93890229   -0.00001935   +6.47078044
 C   +1.14167443   -0.00001999   +7.97207298
 O   +2.22794056   +0.00000418   +1.34342323
 H   +0.19033269   -0.00003082   +8.49794741
 H   +0.50596980   +0.88258067   -0.37910153
 H   +1.69762371   +0.87866802   +8.29367430
 H   +1.69764191   -0.87869766   +8.29367111
 H   +0.35879980   -0.87363807   +6.17455668
 H   +0.35878336   +0.87358948   +6.17455970
 H   +2.85633443   +0.86752737   +6.00994287
 H   +2.85634906   -0.86753050   +6.00993693
 H   +3.43348145   +0.00001314   +3.63422930
 H   +0.08066369   -0.00001313   +3.84134388
 H   +0.50596076   -0.88258556   -0.37910203
 H   -1.04085536   +0.00000594   -0.29679325
 H   +4.24467316   +0.00002371   +3.33920668
22
 * E =  +0.165 kcal/mol ; (2) 180_000_000_180
 C   +0.00000000   +0.00000000   +0.00000000
 O   +0.00000000   +0.00000000   +1.41522825
 C   +1.20308573   +0.00000000   +1.97981447
 C   +1.17305271   -0.00001387   +3.44913391
 C   +0.09453448   -0.00002722   +4.20964469
 C   -0.07775648   -0.00004122   +5.67206875
 C   +1.21771298   -0.00004123   +6.46811366
 C   +0.96464405   -0.00005483   +7.96173601
 O   +2.22621604   +0.00001202   +1.34437258
 H   +1.89810588   -0.00005520   +8.51861844
 H   +0.50507097   +0.88284221   -0.37949828
 H   +0.39847602   -0.87881645   +8.26478428
 H   +0.39846798   +0.87869654   +8.26479894
 H   +1.80743123   +0.87350749   +6.19157090
 H   +1.80744009   -0.87357943   +6.19155654
 H   -0.68298365   -0.86776438   +5.94480678
 H   -0.68299297   +0.86767062   +5.94482212
 H   -1.19104683   -0.00002808   +3.59024439
 H   +2.16146494   -0.00001203   +3.89386385
 H   +0.50504612   -0.88285724   -0.37949550
 H   -1.04135167   +0.00001616   -0.29487143
 H   -2.01477623   -0.00002951   +3.31570766
22
 * E =  +0.166 kcal/mol ; (3) 180_180_119_178
 C   +0.00000000   +0.00000000   +0.00000000
 O   +0.00000000   +0.00000000   +1.41495171
 C   +1.20858323   +0.00000000   +1.98136535
 C   +1.09003481   +0.00131002   +3.44780169
 C   +2.13323110   +0.00918913   +4.25429327
 C   +2.25049617   +0.00385273   +5.71981836
 C   +2.98261240   -1.22442947   +6.24762562
 C   +3.13301376   -1.19320431   +7.75425585
 O   +2.22826768   -0.00071100   +1.34524563
 H   +3.65431622   -2.07584345   +8.11565118
 H   +0.50503344   +0.88322767   -0.37882635
 H   +2.16287331   -1.15706609   +8.24663684
 H   +3.69863512   -0.31999225   +8.07438205
 H   +3.96256876   -1.28286112   +5.77555206
 H   +2.43991041   -2.11842468   +5.94374177
 H   +1.25386549   +0.06693263   +6.16518786
 H   +2.79199951   +0.89981128   +6.03072233
 H   +3.43506462   +0.03797690   +3.64323372
 H   +0.08097088   -0.00218542   +3.84527193
 H   +0.50708363   -0.88202320   -0.37889956
 H   -1.04081436   -0.00111403   -0.29678324
 H   +4.24857659   +0.07518976   +3.35506342
22
 * E =  +0.234 kcal/mol ; (4) 180_181_121_297
 C   +0.00000000   +0.00000000   +0.00000000
 O   +0.00000000   +0.00000000   +1.41492711
 C   +1.20838221   +0.00000000   +1.98162987
 C   +1.08942221   +0.00029129   +3.44813052
 C   +2.13230621   +0.01928893   +4.25481830
 C   +2.25396183   +0.02771772   +5.72093530
 C   +3.04930210   -1.15959731   +6.25630775
 C   +2.38711791   -2.49177659   +5.97335977
 O   +2.22827283   -0.00086190   +1.34573995
 H   +2.96916012   -3.31342781   +6.38285203
 H   +0.50580224   +0.88277449   -0.37885775
 H   +2.28026118   -2.65947196   +4.90388805
 H   +1.39280857   -2.53639763   +6.41520652
 H   +3.17679898   -1.02763808   +7.32953912
 H   +4.04758964   -1.14041563   +5.82028743
 H   +1.25473574   +0.04067681   +6.16540015
 H   +2.74734171   +0.95388179   +6.01935951
 H   +3.43234743   +0.05954601   +3.64355073
 H   +0.08044406   -0.01300550   +3.84545291
 H   +0.50631091   -0.88246401   -0.37891778
 H   -1.04081219   -0.00024669   -0.29677591
 H   +4.24540388   +0.10686148   +3.35192306
22
 * E =  +0.306 kcal/mol ; (5) 180_000_118_178
 C   +0.00000000   +0.00000000   +0.00000000
 O   +0.00000000   +0.00000000   +1.41521631
 C   +1.20240661   +0.00000000   +1.98095818
 C   +1.16824587   -0.00173340   +3.45043788
 C   +0.08925704   -0.01015167   +4.20952944
 C   -0.07665048   -0.00307343   +5.67172236
 C   -0.80415772   +1.23704141   +6.17717897
 C   -1.00215567   +1.20815384   +7.67839398
 O   +2.22674730   +0.00139054   +1.34777152
 H   -1.51979966   +2.09927654   +8.02384719
 H   +0.50534891   +0.88263524   -0.37959760
 H   -0.04859925   +1.15606915   +8.20068874
 H   -1.59175417   +0.34433907   +7.98019375
 H   -1.76823754   +1.31230325   +5.67535808
 H   -0.23704228   +2.12165442   +5.89095937
 H   +0.90513715   -0.08144068   +6.14607245
 H   -0.64083793   -0.89058534   +5.96585293
 H   -1.19938153   -0.03893994   +3.59144076
 H   +2.15407093   +0.00236881   +3.90209598
 H   +0.50423201   -0.88324760   -0.37967967
 H   -1.04136068   +0.00059660   -0.29479587
 H   -2.02252817   -0.07616800   +3.31757479
22
 * E =  +0.397 kcal/mol ; (6) 180_001_120_296
 C   +0.00000000   +0.00000000   +0.00000000
 O   +0.00000000   +0.00000000   +1.41531619
 C   +1.20315042   +0.00000000   +1.97974966
 C   +1.17196466   -0.00105802   +3.44937352
 C   +0.09517099   -0.01297769   +4.21147803
 C   -0.07103619   -0.01862349   +5.67460659
 C   -0.84396926   +1.19219318   +6.18958599
 C   -0.12972432   +2.50311710   +5.93546178
 O   +2.22655826   +0.00165064   +1.34505310
 H   -0.69858422   +3.34180918   +6.32859928
 H   +0.50765865   +0.88132600   -0.37952544
 H   +0.02025088   +2.67125434   +4.87127514
 H   +0.84958326   +2.51386448   +6.41137152
 H   -1.01039778   +1.06013952   +7.25745140
 H   -1.82835293   +1.20758851   +5.72248769
 H   +0.91497562   -0.06148448   +6.14529976
 H   -0.59950325   -0.92987575   +5.95823115
 H   -1.19439656   -0.04166321   +3.59690031
 H   +2.15881026   +0.00616789   +3.89867932
 H   +0.50225376   -0.88445343   -0.37947605
 H   -1.04133335   +0.00296533   -0.29486047
 H   -2.01764174   -0.08091404   +3.32107017
22
 * E =  +0.697 kcal/mol ; (7) 180_181_009_071
 C   +0.00000000   +0.00000000   +0.00000000
 O   +0.00000000   +0.00000000   +1.41484436
 C   +1.20898361   +0.00000000   +1.98151745
 C   +1.08869070   +0.00052916   +3.44754931
 C   +2.13263464   +0.01141788   +4.25362565
 C   +2.27174533   +0.04477829   +5.71952138
 C   +0.97931093   -0.15080255   +6.50314798
 C   +0.44364033   -1.56744995   +6.43536633
 O   +2.22809535   -0.00084697   +1.34446807
 H   -0.47961273   -1.66418791   +7.00119623
 H   +0.50711820   +0.88195592   -0.37901515
 H   +1.16157966   -2.27194089   +6.85134514
 H   +0.24060169   -1.87345429   +5.41215274
 H   +0.23042190   +0.55537460   +6.14438479
 H   +1.17144461   +0.11370545   +7.54206851
 H   +2.72875118   +1.00196290   +5.97893365
 H   +3.00282691   -0.71134037   +6.01409327
 H   +3.42497407   +0.02187184   +3.63277877
 H   +0.07707083   -0.00654679   +3.83801810
 H   +0.50497441   -0.88318885   -0.37902498
 H   -1.04082603   +0.00126491   -0.29684319
 H   +4.23755946   +0.02582123   +3.33719314
22
 * E =  +0.829 kcal/mol ; (8) 180_182_106_061
 C   +0.00000000   +0.00000000   +0.00000000
 O   +0.00000000   +0.00000000   +1.41493967
 C   +1.20840340   +0.00000000   +1.98170099
 C   +1.08849908   -0.00056540   +3.44815846
 C   +2.12829613   +0.03507106   +4.25937699
 C   +2.21881102   +0.03056494   +5.72960878
 C   +2.69518725   -1.30306058   +6.30293613
 C   +4.07751595   -1.70940497   +5.83459989
 O   +2.22819934   -0.00025916   +1.34576386
 H   +4.40006993   -2.62285720   +6.32786557
 H   +0.50448851   +0.88348930   -0.37889307
 H   +4.81088524   -0.93542726   +6.05514852
 H   +4.09996731   -1.88605054   +4.76204581
 H   +1.97350806   -2.07566235   +6.04056088
 H   +2.68253641   -1.22121275   +7.38901363
 H   +1.23926220   +0.27881712   +6.14409948
 H   +2.90637057   +0.81846986   +6.04211091
 H   +3.40898552   +0.19282550   +3.63585955
 H   +0.07859359   -0.02801403   +3.84274136
 H   +0.50750979   -0.88178302   -0.37891868
 H   -1.04081925   -0.00170686   -0.29674082
 H   +4.19999525   +0.35072689   +3.32618798
22
 * E =  +0.876 kcal/mol ; (9) 180_000_010_071
 C   +0.00000000   +0.00000000   +0.00000000
 O   +0.00000000   +0.00000000   +1.41522886
 C   +1.20279209   +0.00000000   +1.98018353
 C   +1.17321819   +0.00141587   +3.44942740
 C   +0.09565520   -0.00230100   +4.21104128
 C   -0.09124982   -0.03112540   +5.67332540
 C   +1.17505824   +0.16546664   +6.49793687
 C   +1.71511323   +1.58105370   +6.44400521
 O   +2.22627291   -0.00078243   +1.34517459
 H   +2.61752818   +1.67793227   +7.04235355
 H   +0.50442888   +0.88317230   -0.37957758
 H   +0.98395137   +2.28809084   +6.83175743
 H   +1.95626870   +1.88343894   +5.42808744
 H   +1.93439016   -0.54338318   +6.16784441
 H   +0.94706468   -0.09518706   +7.53051958
 H   -0.55755781   -0.98691668   +5.92105650
 H   -0.82989498   +0.72739843   +5.94159184
 H   -1.18448535   -0.00787420   +3.58773439
 H   +2.16312100   +0.00466191   +3.89157379
 H   +0.50530812   -0.88264733   -0.37960368
 H   -1.04138554   -0.00046562   -0.29474783
 H   -2.00923439   -0.00798722   +3.31171597
22
 * E =  +1.044 kcal/mol ; (10) 180_002_104_061
 C   +0.00000000   +0.00000000   +0.00000000
 O   +0.00000000   +0.00000000   +1.41537172
 C   +1.20296349   +0.00000000   +1.97970046
 C   +1.17359016   -0.01052839   +3.44937874
 C   +0.10093627   -0.05861409   +4.21706532
 C   -0.03325992   -0.06155167   +5.68546297
 C   -0.49648747   +1.27802080   +6.25514337
 C   -1.85509596   +1.71933713   +5.75056581
 O   +2.22641124   +0.00962647   +1.34503875
 H   -2.17102421   +2.63641172   +6.24132975
 H   +0.50126856   +0.88502133   -0.37941670
 H   -2.61219981   +0.96089774   +5.94328909
 H   -1.84179225   +1.90478095   +4.67917904
 H   +0.24964320   +2.03589307   +6.01980477
 H   -0.51752637   +1.18825725   +7.34044069
 H   +0.92962416   -0.33219108   +6.12357400
 H   -0.74424634   -0.83771148   +5.97370622
 H   -1.17089185   -0.21254059   +3.59233171
 H   +2.16162641   +0.02055675   +3.89541020
 H   +0.50846793   -0.88081529   -0.37959567
 H   -1.04135213   -0.00423694   -0.29477204
 H   -1.97468687   -0.36654702   +3.30343345
22
 * E =  +9.368 kcal/mol ; (11) 353_167_359_180
 C   +0.00000000   +0.00000000   +0.00000000
 O   +0.00000000   +0.00000000   +1.40765663
 C   +1.13756174   +0.00000000   +2.11850530
 C   +2.40775235   -0.15018848   +1.37379557
 C   +3.57802203   +0.08978002   +1.93628180
 C   +4.95733386   -0.00056695   +1.43387642
 C   +5.09069029   -0.47731465   -0.00386097
 C   +6.53805074   -0.55251591   -0.44503421
 O   +1.07147203   +0.10799296   +3.30882597
 H   +6.61922841   -0.89349102   -1.47393314
 H   +0.60594890   +0.80907937   -0.40120056
 H   +7.10299140   -1.24308354   +0.17808495
 H   +7.01976373   +0.42120073   -0.37980965
 H   +4.53933151   +0.19865305   -0.65752112
 H   +4.62256442   -1.45676982   -0.10071738
 H   +5.51601428   -0.66298544   +2.09942201
 H   +5.42747794   +0.97886621   +1.54831854
 H   +3.56883585   +0.58815240   +3.28483609
 H   +2.37739649   -0.47786476   +0.34189143
 H   +0.34154046   -0.95261469   -0.40019866
 H   -1.03156644   +0.15215359   -0.29347035
 H   +3.64363257   +0.92106252   +4.07627173
22
 * E =  +9.514 kcal/mol ; (12) 007_194_120_178
 C   +0.00000000   +0.00000000   +0.00000000
 O   +0.00000000   +0.00000000   +1.40792237
 C   +1.13793498   +0.00000000   +2.11739792
 C   +2.40823417   +0.15072995   +1.37257793
 C   +3.57831560   -0.10122534   +1.92896944
 C   +4.95492113   -0.00564354   +1.42245171
 C   +5.81148439   +0.95819920   +2.23582496
 C   +7.23830078   +1.01436490   +1.73143575
 O   +1.07459669   -0.10896601   +3.30778712
 H   +7.83542274   +1.70636879   +2.31949522
 H   +0.33917630   +0.95347089   -0.40002704
 H   +7.27766855   +1.34228660   +0.69418720
 H   +7.71340512   +0.03660386   +1.78728277
 H   +5.79588493   +0.65007724   +3.28040654
 H   +5.36181979   +1.94937603   +2.20025650
 H   +4.94006800   +0.29977128   +0.37243944
 H   +5.40977208   -0.99785664   +1.45643236
 H   +3.57153151   -0.63178941   +3.26503172
 H   +2.38215184   +0.48669970   +0.34258912
 H   +0.60748953   -0.80779346   -0.40131312
 H   -1.03125905   -0.15434616   -0.29331391
 H   +3.64623200   -1.00160089   +4.04106049
22
 * E =  +9.539 kcal/mol ; (13) 007_195_122_297
 C   +0.00000000   +0.00000000   +0.00000000
 O   +0.00000000   +0.00000000   +1.40804504
 C   +1.13808202   +0.00000000   +2.11686509
 C   +2.40749031   +0.15969351   +1.37222625
 C   +3.57669185   -0.11564142   +1.91899809
 C   +4.95519569   -0.02564478   +1.41392051
 C   +5.83802385   +0.87144260   +2.27749639
 C   +5.37445872   +2.31294355   +2.29837852
 O   +1.07616478   -0.11432835   +3.30690846
 H   +6.03471440   +2.92758920   +2.90470170
 H   +0.33083513   +0.95651898   -0.39974231
 H   +4.37061126   +2.39817033   +2.70861937
 H   +5.35891237   +2.73385141   +1.29402841
 H   +6.85695014   +0.81207837   +1.89853864
 H   +5.85939675   +0.47307684   +3.29125621
 H   +4.94173571   +0.34170988   +0.38367304
 H   +5.37950174   -1.03036998   +1.38947752
 H   +3.56497046   -0.68065740   +3.23912012
 H   +2.38091418   +0.52382854   +0.35182366
 H   +0.61502084   -0.80207706   -0.40123276
 H   -1.02980343   -0.16348157   -0.29344187
 H   +3.63082277   -1.07475125   +4.00536820
22
 * E = +10.088 kcal/mol ; (14) 352_164_350_289
 C   +0.00000000   +0.00000000   +0.00000000
 O   +0.00000000   +0.00000000   +1.40781081
 C   +1.13906600   +0.00000000   +2.11620004
 C   +2.40503924   -0.17481180   +1.36972378
 C   +3.57589575   +0.11466361   +1.90645374
 C   +4.95787224   +0.04652838   +1.40205976
 C   +5.13728536   -0.67387332   +0.07132953
 C   +4.93119594   -2.17292444   +0.16612146
 O   +1.07796519   +0.12541735   +3.30499654
 H   +5.05887815   -2.64815566   -0.80328480
 H   +0.62699271   +0.79286837   -0.40110858
 H   +3.93840193   -2.42236422   +0.53245041
 H   +5.65128474   -2.61858854   +0.84967309
 H   +6.14428873   -0.46985928   -0.28969121
 H   +4.45998275   -0.24284769   -0.66653735
 H   +5.57732075   -0.42727332   +2.16688577
 H   +5.32751263   +1.07138709   +1.33008343
 H   +3.55732555   +0.69459468   +3.21734613
 H   +2.36724152   -0.56280458   +0.35852791
 H   +0.31716797   -0.96120692   -0.39989284
 H   -1.02726279   +0.17825682   -0.29393438
 H   +3.62283000   +1.07866210   +3.98827920
22
 * E = +10.107 kcal/mol ; (15) 008_197_108_061
 C   +0.00000000   +0.00000000   +0.00000000
 O   +0.00000000   +0.00000000   +1.40813026
 C   +1.13970801   +0.00000000   +2.11429474
 C   +2.40576924   +0.17400995   +1.36736349
 C   +3.57658141   -0.13192051   +1.89567218
 C   +4.94706932   -0.01397503   +1.37011672
 C   +5.75516262   +1.09392314   +2.04459850
 C   +5.92721664   +0.89955530   +3.53726267
 O   +1.08232669   -0.12558276   +3.30344843
 H   +6.57155093   +1.66889694   +3.95498537
 H   +0.31286091   +0.96277049   -0.39933401
 H   +6.37690018   -0.06698218   +3.75885719
 H   +4.97443266   +0.94617722   +4.05878178
 H   +5.27164984   +2.05027825   +1.84938373
 H   +6.73053384   +1.13371299   +1.56150644
 H   +4.90184318   +0.16775392   +0.29378660
 H   +5.46146409   -0.96598156   +1.51201024
 H   +3.53020684   -0.81880055   +3.14793522
 H   +2.37402338   +0.57518224   +0.36087536
 H   +0.63069177   -0.78993448   -0.40090848
 H   -1.02640383   -0.18283186   -0.29396213
 H   +3.55081615   -1.31477005   +3.85565716
