22
 * E =  +0.000 kcal/mol ; (1) 180_180_121_178
 C   +0.00000000   +0.00000000   +0.00000000
 O   +0.00000000   +0.00000000   +1.41623120
 C   +1.20042585   +0.00000000   +1.98182315
 C   +1.12394302   +0.00073944   +3.44101862
 C   +2.13494030   -0.00233075   +4.28643264
 C   +2.03944314   -0.00964294   +5.77054072
 C   +2.73283963   -1.21597511   +6.38919323
 C   +2.68224344   -1.19094279   +7.90288841
 O   +2.22982193   -0.00038941   +1.35599602
 H   +3.17754886   -2.05967395   +8.32912889
 H   +0.50580680   +0.88293423   -0.37813261
 H   +1.65442486   -1.18692396   +8.26096740
 H   +3.17239389   -0.30259962   +8.29739955
 H   +3.77008346   -1.24580361   +6.05433450
 H   +2.26372041   -2.12562581   +6.01598953
 H   +0.99527253   +0.02137480   +6.07581882
 H   +2.51099822   +0.89905374   +6.15136591
 H   +3.13386759   -0.01116548   +3.85317034
 H   -0.23936390   -0.00102654   +4.00733911
 H   +0.50492161   -0.88342123   -0.37817979
 H   -1.04106131   +0.00052490   -0.29494786
 H   -1.00473344   -0.00400387   +4.36718567
22
 * E =  +0.160 kcal/mol ; (2) 180_179_237_065
 C   +0.00000000   +0.00000000   +0.00000000
 O   +0.00000000   +0.00000000   +1.41625919
 C   +1.20047827   +0.00000000   +1.98157952
 C   +1.12436954   -0.00190940   +3.44084619
 C   +2.13523881   -0.02164055   +4.28607582
 C   +2.04514351   -0.02780305   +5.77152102
 C   +2.79888577   +1.13660093   +6.40466303
 C   +2.20966622   +2.48667191   +6.05066183
 O   +2.22974672   +0.00148752   +1.35542952
 H   +2.75754286   +3.29331017   +6.53130450
 H   +0.50570402   +0.88300037   -0.37813299
 H   +1.17066630   +2.55354848   +6.36890423
 H   +2.23412337   +2.66014882   +4.97694780
 H   +3.84434537   +1.09615694   +6.09667742
 H   +2.79300732   +1.00292466   +7.48545062
 H   +2.47229898   -0.96483213   +6.13248141
 H   +1.00076720   -0.01151030   +6.07796273
 H   +3.13426048   -0.03074392   +3.85189086
 H   -0.23860873   +0.02754991   +4.00769057
 H   +0.50527021   -0.88329863   -0.37801397
 H   -1.04103856   +0.00020562   -0.29499574
 H   -1.00359887   +0.04725081   +4.36738105
22
 * E =  +0.537 kcal/mol ; (3) 180_180_000_180
 C   +0.00000000   +0.00000000   +0.00000000
 O   +0.00000000   +0.00000000   +1.41601489
 C   +1.20060217   +0.00000000   +1.98108749
 C   +1.12847877   -0.00000645   +3.44283023
 C   +2.17047767   -0.00000728   +4.25232542
 C   +2.19940803   -0.00001212   +5.73916031
 C   +0.86055536   -0.00001635   +6.44476599
 C   +1.01559109   -0.00002010   +7.95189737
 O   +2.22847097   +0.00000566   +1.35217488
 H   +0.04873482   -0.00002362   +8.44849188
 H   +0.50550012   +0.88306849   -0.37824660
 H   +1.56147416   +0.87850989   +8.29178511
 H   +1.56147811   -0.87854949   +8.29178031
 H   +0.28675403   -0.87101853   +6.13041391
 H   +0.28675101   +0.87098552   +6.13041849
 H   +2.78683660   +0.86541343   +6.05663728
 H   +2.78683914   -0.86543796   +6.05663180
 H   +3.13939833   -0.00000397   +3.75603420
 H   -0.27977234   -0.00001026   +3.91007732
 H   +0.50545943   -0.88309107   -0.37824839
 H   -1.04111960   +0.00002373   -0.29492890
 H   -1.09376530   -0.00001193   +4.12559869
22
 * E =  +0.648 kcal/mol ; (4) 180_180_118_063
 C   +0.00000000   +0.00000000   +0.00000000
 O   +0.00000000   +0.00000000   +1.41622922
 C   +1.20042747   +0.00000000   +1.98167843
 C   +1.12416390   -0.00023612   +3.44108926
 C   +2.13634490   +0.00434983   +4.28542468
 C   +2.03330460   -0.00324921   +5.77035311
 C   +2.66351219   -1.23775168   +6.40962234
 C   +4.15562821   -1.36022802   +6.17207823
 O   +2.22973144   -0.00018993   +1.35557091
 H   +4.56537394   -2.21332969   +6.70695029
 H   +0.50274607   +0.88471716   -0.37807780
 H   +4.68180319   -0.47113361   +6.51650038
 H   +4.38949815   -1.49703373   +5.11873094
 H   +2.15467761   -2.12743835   +6.04008859
 H   +2.47042315   -1.19458750   +7.48081505
 H   +0.98817551   +0.07205846   +6.06059565
 H   +2.53979859   +0.88513155   +6.15395860
 H   +3.13171290   +0.01087543   +3.84657630
 H   -0.23955680   -0.00609429   +4.00615033
 H   +0.50819209   -0.88156926   -0.37810745
 H   -1.04103784   -0.00304378   -0.29500192
 H   -1.00594998   -0.00971684   +4.36460590
22
 * E =  +1.191 kcal/mol ; (5) 180_359_121_178
 C   +0.00000000   +0.00000000   +0.00000000
 O   +0.00000000   +0.00000000   +1.41701276
 C   +1.21031483   +0.00000000   +1.98159506
 C   +1.14072068   +0.00119385   +3.43932628
 C   +0.10227049   +0.01130464   +4.24955115
 C   +0.15328795   +0.02154058   +5.73694209
 C   -0.54543562   +1.23663160   +6.33165636
 C   -0.53918913   +1.21614817   +7.84627145
 O   +2.23083177   -0.00098385   +1.34657886
 H   -1.03785961   +2.09119998   +8.25529636
 H   +0.50411965   +0.88360316   -0.37870955
 H   +0.47770396   +1.20320510   +8.23391870
 H   -1.04935916   +0.33400511   +8.22914029
 H   -1.57241151   +1.27594923   +5.96695426
 H   -0.05623454   +2.14017094   +5.96955618
 H   +1.18812628   -0.01826746   +6.07136642
 H   -0.33719818   -0.88171725   +6.10646139
 H   -0.88549626   +0.02508615   +3.79145140
 H   +2.49831207   -0.00183463   +4.04639393
 H   +0.50586030   -0.88262780   -0.37863281
 H   -1.04143158   -0.00101279   -0.29472812
 H   +3.25657868   -0.00127080   +4.40573690
22
 * E =  +1.362 kcal/mol ; (6) 180_000_238_065
 C   +0.00000000   +0.00000000   +0.00000000
 O   +0.00000000   +0.00000000   +1.41703859
 C   +1.21039701   +0.00000000   +1.98171607
 C   +1.14052192   +0.00067138   +3.43947687
 C   +0.10177570   +0.00332863   +4.24928491
 C   +0.14678848   +0.00552091   +5.73787591
 C   -0.59320296   -1.18200563   +6.34373834
 C   +0.04538901   -2.51356331   +6.00570549
 O   +2.23088359   -0.00095240   +1.34671306
 H   -0.49502061   -3.33719873   +6.46553015
 H   +0.50591410   +0.88262305   -0.37856408
 H   +1.07463050   -2.55224174   +6.35815092
 H   +0.06244608   -2.68370064   +4.93133378
 H   -1.62940460   -1.17020028   +6.00324011
 H   -0.62544773   -1.05185953   +7.42448207
 H   -0.31487217   +0.92936030   +6.08995194
 H   +1.18208808   +0.01494301   +6.07376621
 H   -0.88596641   -0.00180481   +3.78992508
 H   +2.49811038   -0.01303298   +4.04728714
 H   +0.50408938   -0.88359888   -0.37874916
 H   -1.04142109   +0.00110978   -0.29475907
 H   +3.25599584   -0.02425525   +4.40670689
22
 * E =  +1.698 kcal/mol ; (7) 180_000_000_180
 C   +0.00000000   +0.00000000   +0.00000000
 O   +0.00000000   +0.00000000   +1.41677253
 C   +1.21107129   +0.00000000   +1.98100712
 C   +1.14492950   -0.00000003   +3.44112321
 C   +0.08361520   +0.00000117   +4.22388112
 C   +0.02884936   +0.00000075   +5.71147905
 C   +1.35693939   -0.00000129   +6.43716700
 C   +1.17901520   -0.00000156   +7.94170754
 O   +2.22960734   +0.00000005   +1.34294415
 H   +2.13834334   -0.00000310   +8.45260228
 H   -1.04144076   -0.00000095   -0.29483816
 H   +0.62822557   -0.87859215   +8.27346804
 H   +0.62822806   +0.87859037   +8.27346864
 H   +1.93536496   +0.87093823   +6.13136286
 H   +1.93536262   -0.87094217   +6.13136225
 H   -0.56297038   -0.86579786   +6.01958504
 H   -0.56296804   +0.86580074   +6.01958567
 H   -0.87919930   +0.00000269   +3.71627549
 H   +2.55344906   -0.00000204   +3.93056351
 H   +0.50511493   +0.88302564   -0.37872100
 H   +0.50511653   -0.88302471   -0.37872104
 H   +3.36648478   -0.00000329   +4.12751220
22
 * E =  +1.852 kcal/mol ; (8) 180_000_242_297
 C   +0.00000000   +0.00000000   +0.00000000
 O   +0.00000000   +0.00000000   +1.41700973
 C   +1.21041575   +0.00000000   +1.98168841
 C   +1.14081520   +0.00071691   +3.43961139
 C   +0.10099869   +0.00352988   +4.24858401
 C   +0.15980228   -0.00257757   +5.73708445
 C   -0.47950653   -1.24107031   +6.35879071
 C   -1.96328094   -1.37475105   +6.07874886
 O   +2.23081818   -0.00084871   +1.34653906
 H   -2.38210138   -2.23054661   +6.60214868
 H   +0.50476923   +0.88327904   -0.37859064
 H   -2.16570072   -1.51420141   +5.01911560
 H   -2.50578658   -0.48937271   +6.40712034
 H   -0.31801860   -1.19597892   +7.43509200
 H   +0.04634384   -2.12719915   +6.00496200
 H   -0.36268969   +0.88296971   +6.10537235
 H   +1.19591461   +0.07960698   +6.05614908
 H   -0.88304480   +0.00739850   +3.78493372
 H   +2.49857896   -0.00159077   +4.04580031
 H   +0.50536178   -0.88291959   -0.37864790
 H   -1.04140807   -0.00026584   -0.29481706
 H   +3.25757690   -0.00284178   +4.40450872
22
 * E =  +7.896 kcal/mol ; (9) 355_157_238_182
 C   +0.00000000   +0.00000000   +0.00000000
 O   +0.00000000   +0.00000000   +1.41215767
 C   +1.14086692   +0.00000000   +2.09574903
 C   +2.41323054   -0.11814262   +1.36198089
 C   +3.58449677   +0.29335489   +1.81080694
 C   +4.90062622   +0.15575335   +1.13325756
 C   +5.90583518   -0.60945049   +1.98398413
 C   +7.26313855   -0.70280031   +1.31812426
 O   +1.11866246   +0.10083165   +3.29117675
 H   +7.96788808   -1.25425147   +1.93516564
 H   -1.00264562   +0.28574251   -0.29276472
 H   +7.68176432   +0.28602370   +1.13922429
 H   +7.19546672   -1.21121253   +0.35810615
 H   +5.51788090   -1.60802288   +2.18117887
 H   +6.00220803   -0.12111375   +2.95389365
 H   +5.29602821   +1.15494838   +0.93802317
 H   +4.77779257   -0.33137254   +0.16787651
 H   +3.58279824   +0.77230837   +2.78798644
 H   +2.51134603   -0.80880060   +0.10418889
 H   +0.71201185   +0.71799962   -0.39854549
 H   +0.22126516   -0.98983319   -0.38874518
 H   +2.67024902   -1.22090335   -0.63760178
22
 * E =  +7.930 kcal/mol ; (10) 005_202_240_183
 C   +0.00000000   +0.00000000   +0.00000000
 O   +0.00000000   +0.00000000   +1.41195863
 C   +1.14015409   +0.00000000   +2.09644179
 C   +2.41526840   +0.10886440   +1.36539277
 C   +3.58596180   -0.28187225   +1.83459483
 C   +4.90464857   -0.16873295   +1.15813815
 C   +5.56775297   -1.52354187   +0.94756536
 C   +6.93900073   -1.39691170   +0.31675510
 O   +1.11582332   -0.09424444   +3.29245378
 H   +7.39719044   -2.37151277   +0.16927125
 H   -1.00729543   -0.26924599   -0.29235242
 H   +7.60624683   -0.80800751   +0.94350199
 H   +6.88112207   -0.90785026   -0.65389636
 H   +4.92506246   -2.14076694   +0.32059436
 H   +5.64756590   -2.03802502   +1.90545415
 H   +5.55583590   +0.44563194   +1.78383944
 H   +4.79716289   +0.34773174   +0.20643664
 H   +3.57726388   -0.74371670   +2.81987105
 H   +2.52210867   +0.75491214   +0.08280641
 H   +0.23742304   +0.98590483   -0.38922081
 H   +0.69990520   -0.72980144   -0.39850870
 H   +2.68805832   +1.13688124   -0.67238612
22
 * E =  +8.531 kcal/mol ; (11) 005_203_118_062
 C   +0.00000000   +0.00000000   +0.00000000
 O   +0.00000000   +0.00000000   +1.41218690
 C   +1.14077551   +0.00000000   +2.09580214
 C   +2.41386815   +0.11646271   +1.36261100
 C   +3.58383971   -0.29655045   +1.81401551
 C   +4.89900911   -0.15703862   +1.13232373
 C   +5.89348074   +0.68698550   +1.92596836
 C   +6.26026769   +0.10205072   +3.27549934
 O   +1.11811121   -0.09930615   +3.29147133
 H   +7.02747242   +0.69976232   +3.76095632
 H   -1.00304811   -0.28444498   -0.29265980
 H   +6.64738478   -0.91062968   +3.17224990
 H   +5.40659654   +0.06542606   +3.94823262
 H   +5.48512229   +1.68868377   +2.05498301
 H   +6.79334137   +0.79575205   +1.32183630
 H   +4.75584140   +0.27175535   +0.14355824
 H   +5.32167269   -1.15424728   +0.99290421
 H   +3.57326994   -0.78030101   +2.78760323
 H   +2.51335605   +0.80205526   +0.10203666
 H   +0.22237296   +0.98956344   -0.38874528
 H   +0.71095704   -0.71894837   -0.39865105
 H   +2.67249518   +1.21020511   -0.64219932
