22
 * E =  +0.000 kcal/mol ; (1) 180_171_244_181
 C   +0.00000000   +0.00000000   +0.00000000
 C   +0.00000000   +0.00000000   +1.47513957
 O   +1.23924167   +0.00000000   +1.95904813
 O   -0.97985168   -0.00718618   +2.17297906
 C   +1.33564598   +0.01103373   +3.37126155
 H   +2.39422402   +0.00818332   +3.59608159
 H   +0.86112248   +0.90015598   +3.77479472
 H   +0.85247574   -0.86583456   +3.79087130
 C   -1.15079139   -0.17508331   -0.66795309
 C   -1.27028631   -0.25175524   -2.14293004
 C   -2.09056001   +0.90118565   -2.71250145
 C   -2.24420556   +0.80776277   -4.21642856
 H   +0.96005533   -0.04744367   -0.49172890
 H   -2.06217420   -0.20289990   -0.08262355
 H   -0.28134149   -0.26314591   -2.60013044
 H   -1.75711886   -1.19164595   -2.41370453
 H   -3.07282167   +0.90944824   -2.23987839
 H   -1.61251615   +1.84248037   -2.44354760
 H   -2.82895972   +1.63730659   -4.60587544
 H   -1.27517672   +0.82460364   -4.71189460
 H   -2.74532904   -0.11512501   -4.50327211
 H   +0.32707544   +1.93959719   -0.01994217
22
 * E =  +0.007 kcal/mol ; (2) 179_171_235_063
 C   +0.00000000   +0.00000000   +0.00000000
 C   +0.00000000   +0.00000000   +1.47507521
 O   +1.23924582   +0.00000000   +1.95915046
 O   -0.97991405   -0.00692502   +2.17299402
 C   +1.33578230   +0.01171693   +3.37131173
 H   +2.39441048   +0.01028529   +3.59594542
 H   +0.86027499   +0.90040386   +3.77462722
 H   +0.85398993   -0.86563734   +3.79149734
 C   -1.14970045   -0.18418430   -0.66710716
 C   -1.27370398   -0.30512711   -2.14011921
 C   -2.25137292   +0.70648939   -2.73010466
 C   -1.81081848   +2.14112324   -2.52317331
 H   +0.96011582   -0.04110592   -0.49216840
 H   -2.06064386   -0.21708613   -0.08024284
 H   -0.29494660   -0.19544429   -2.60673490
 H   -1.62691218   -1.31168367   -2.37471188
 H   -2.36288812   +0.50096944   -3.79386800
 H   -3.23422649   +0.55360876   -2.28318297
 H   -2.51331956   +2.83814054   -2.97346590
 H   -1.73279527   +2.38280837   -1.46497789
 H   -0.83361116   +2.31774337   -2.96971249
 H   +0.33516572   +1.94499578   +0.00059434
22
 * E =  +0.047 kcal/mol ; (3) 179_171_126_177
 C   +0.00000000   +0.00000000   +0.00000000
 C   +0.00000000   +0.00000000   +1.47488960
 O   +1.23929590   +0.00000000   +1.95911643
 O   -0.97987518   -0.00726297   +2.17275926
 C   +1.33538694   +0.01144389   +3.37129777
 H   +2.39393196   +0.01657535   +3.59628031
 H   +0.85386244   +0.89667804   +3.77503220
 H   +0.85917368   -0.86931834   +3.79075135
 C   -1.15072069   -0.17577644   -0.66745999
 C   -1.27102596   -0.27551763   -2.14074429
 C   -2.00914620   -1.52995496   -2.59053725
 C   -2.17937980   -1.58827216   -4.09451050
 H   +0.95992933   -0.04422646   -0.49218250
 H   -2.06126204   -0.21275355   -0.08114460
 H   -1.82079494   +0.59831467   -2.50218013
 H   -0.28467493   -0.23593542   -2.60208055
 H   -1.46485996   -2.40767497   -2.24356346
 H   -2.98524420   -1.56370625   -2.10618204
 H   -2.70426163   -2.49042659   -4.39835631
 H   -2.74859352   -0.73462692   -4.45824728
 H   -1.21510779   -1.58050422   -4.59945446
 H   +0.33104462   +1.94280585   -0.00776610
22
 * E =  +0.193 kcal/mol ; (4) 180_172_129_296
 C   +0.00000000   +0.00000000   +0.00000000
 C   +0.00000000   +0.00000000   +1.47488526
 O   +1.23916796   +0.00000000   +1.95928579
 O   -0.97998396   -0.00832918   +2.17273163
 C   +1.33510567   +0.01044481   +3.37148573
 H   +2.39362231   +0.01447149   +3.59659978
 H   +0.85433891   +0.89587087   +3.77571187
 H   +0.85795820   -0.87011297   +3.79030768
 C   -1.15149611   -0.17150442   -0.66702642
 C   -1.27872178   -0.26034815   -2.14136484
 C   -2.07031334   -1.48218168   -2.59519172
 C   -1.38834920   -2.78992285   -2.24862638
 H   +0.95957334   -0.04722801   -0.49246162
 H   -2.06178949   -0.20616917   -0.07934917
 H   -1.78967049   +0.63990039   -2.49187652
 H   -0.29113382   -0.26100936   -2.60222098
 H   -3.06244931   -1.45156281   -2.14375937
 H   -2.22139920   -1.41779472   -3.67172347
 H   -1.96737054   -3.64144453   -2.59721144
 H   -0.40227671   -2.84883013   -2.70674133
 H   -1.25695620   -2.89426890   -1.17350062
 H   +0.33534230   +1.94334894   -0.00921674
22
 * E =  +0.655 kcal/mol ; (5) 179_171_247_297
 C   +0.00000000   +0.00000000   +0.00000000
 C   +0.00000000   +0.00000000   +1.47518859
 O   +1.23900060   +0.00000000   +1.95959109
 O   -0.98013663   -0.00686947   +2.17276060
 C   +1.33483896   +0.01141210   +3.37182968
 H   +2.39333073   +0.01368734   +3.59703617
 H   +0.85563378   +0.89806465   +3.77521996
 H   +0.85595132   -0.86792417   +3.79121362
 C   -1.15106877   -0.17597844   -0.66765103
 C   -1.26174463   -0.25269578   -2.14450684
 C   -2.01180328   +0.93602203   -2.74664228
 C   -3.45976006   +1.03172019   -2.30882748
 H   +0.96024755   -0.04600939   -0.49169415
 H   -2.05848976   -0.21141267   -0.07834634
 H   -0.26769175   -0.31750236   -2.58340577
 H   -1.79257928   -1.16876512   -2.41361644
 H   -1.48464822   +1.85383217   -2.48796094
 H   -1.96582920   +0.84751779   -3.83137808
 H   -3.96488096   +1.85094126   -2.81430859
 H   -4.00115039   +0.11602091   -2.54207117
 H   -3.54894363   +1.20689577   -1.23926496
 H   +0.32813745   +1.94172728   -0.01566173
22
 * E =  +0.669 kcal/mol ; (6) 180_171_123_063
 C   +0.00000000   +0.00000000   +0.00000000
 C   +0.00000000   +0.00000000   +1.47496387
 O   +1.23912216   +0.00000000   +1.95934239
 O   -0.97999879   -0.00778565   +2.17278771
 C   +1.33503628   +0.01052546   +3.37154901
 H   +2.39353612   +0.00895196   +3.59676163
 H   +0.85915250   +0.89880369   +3.77533609
 H   +0.85286870   -0.86714661   +3.79065340
 C   -1.15123390   -0.17388353   -0.66748293
 C   -1.26122698   -0.27289318   -2.14273477
 C   -1.92854192   -1.55996334   -2.62293614
 C   -3.36688064   -1.71180352   -2.16916581
 H   +0.96014525   -0.04452127   -0.49194854
 H   -2.05881725   -0.20240152   -0.07797693
 H   -1.85143292   +0.57526866   -2.50105483
 H   -0.27302960   -0.18015979   -2.58986626
 H   -1.88982645   -1.57205323   -3.71148261
 H   -1.34141224   -2.41309717   -2.28415425
 H   -3.81561359   -2.60625207   -2.59390926
 H   -3.44527140   -1.79284410   -1.08756025
 H   -3.96847876   -0.85994630   -2.48267963
 H   +0.33340136   +1.94377298   -0.01007556
22
 * E =  +0.793 kcal/mol ; (7) 180_346_244_181
 C   +0.00000000   +0.00000000   +0.00000000
 C   +0.00000000   +0.00000000   +1.47416663
 O   +1.22309103   +0.00000000   +2.00051667
 O   -1.00069846   +0.00755612   +2.14122816
 C   +1.26760157   +0.01040078   +3.41549542
 H   +2.31737653   +0.00057398   +3.67868486
 H   +0.78437307   +0.90150348   +3.80390962
 H   +0.76470079   -0.86430351   +3.81576705
 C   +1.08634803   +0.27712655   -0.73927360
 C   +1.08825826   +0.37457972   -2.21903439
 C   +1.95905039   -0.69855646   -2.86398008
 C   +1.98918455   -0.58238291   -4.37389020
 H   -0.98684189   -0.02589994   -0.43720582
 H   +2.03705149   +0.37776755   -0.23163623
 H   +0.06998306   +0.30267693   -2.59976593
 H   +1.46897864   +1.35544169   -2.51345935
 H   +2.97190042   -0.62454295   -2.46729805
 H   +1.58585543   -1.67967209   -2.57229195
 H   +2.61225894   -1.35505281   -4.81718253
 H   +0.99035715   -0.68077471   -4.79495869
 H   +2.38487272   +0.38270559   -4.68559019
 H   -0.13660614   -1.96314684   -0.03114827
22
 * E =  +0.813 kcal/mol ; (8) 180_345_235_063
 C   +0.00000000   +0.00000000   +0.00000000
 C   +0.00000000   +0.00000000   +1.47408572
 O   +1.22317017   +0.00000000   +2.00075909
 O   -1.00066143   +0.00809544   +2.14124010
 C   +1.26739551   +0.01095460   +3.41575943
 H   +2.31718497   +0.00750053   +3.67909375
 H   +0.77862345   +0.89908847   +3.80397510
 H   +0.77003569   -0.86681802   +3.81629548
 C   +1.08426168   +0.28642911   -0.73843883
 C   +1.08571676   +0.43206954   -2.21568350
 C   +2.10385194   -0.47875545   -2.89401980
 C   +1.81351557   -1.95002703   -2.67920869
 H   -0.98650415   -0.03219158   -0.43756246
 H   +2.03437910   +0.39183000   -0.22944256
 H   +0.08817740   +0.23610357   -2.60826052
 H   +1.32465354   +1.46936065   -2.46040952
 H   +2.11512181   -0.25344767   -3.95954523
 H   +3.10018345   -0.23999486   -2.52004868
 H   +2.54099738   -2.57473625   -3.19169507
 H   +1.83685275   -2.20836221   -1.62230289
 H   +0.82583187   -2.21185817   -3.05504518
 H   -0.14213435   -1.97063677   -0.00782661
22
 * E =  +0.830 kcal/mol ; (9) 179_346_126_178
 C   +0.00000000   +0.00000000   +0.00000000
 C   +0.00000000   +0.00000000   +1.47393125
 O   +1.22323800   +0.00000000   +2.00010864
 O   -1.00054203   +0.00793995   +2.14134041
 C   +1.26829325   +0.01282396   +3.41501555
 H   +2.31822831   +0.00904594   +3.67774960
 H   +0.78023778   +0.90175764   +3.80233277
 H   +0.77059757   -0.86410322   +3.81698717
 C   +1.08603168   +0.27835662   -0.73883039
 C   +1.08632086   +0.40045634   -2.21648148
 C   +1.66616343   +1.72310074   -2.70115293
 C   +1.71615165   +1.80957953   -4.21258077
 H   -0.98647959   -0.03001166   -0.43766595
 H   +2.03514983   +0.38879939   -0.23009804
 H   +1.68636019   -0.41446133   -2.63150595
 H   +0.07567215   +0.27165766   -2.60258694
 H   +1.06874296   +2.54183006   -2.30140255
 H   +2.66882124   +1.84643990   -2.29078395
 H   +2.12889330   +2.76011741   -4.54093545
 H   +2.33420260   +1.01700848   -4.63074426
 H   +0.72150572   +1.71405975   -4.64415193
 H   -0.13464943   -1.96746126   -0.01799880
22
 * E =  +0.831 kcal/mol ; (10) 180_170_357_286
 C   +0.00000000   +0.00000000   +0.00000000
 C   +0.00000000   +0.00000000   +1.47513922
 O   +1.24003110   +0.00000000   +1.95797262
 O   -0.97862845   -0.00933494   +2.17482141
 C   +1.33777121   +0.00915533   +3.37000969
 H   +2.39662627   +0.00943312   +3.59371355
 H   +0.86074140   +0.89603427   +3.77550737
 H   +0.85819793   -0.86998079   +3.78902856
 C   -1.15497836   -0.19887499   -0.65515501
 C   -1.33473969   -0.38189378   -2.11836172
 C   -0.09497972   -0.27067036   -2.98713723
 C   +0.40296263   +1.15225547   -3.15604025
 H   +0.96213599   -0.03713228   -0.48717787
 H   -2.05087343   -0.22747259   -0.04714018
 H   -1.80183087   -1.36007987   -2.25859051
 H   -2.08833392   +0.33348159   -2.45946949
 H   +0.69416299   -0.90236783   -2.57793860
 H   -0.32740074   -0.68412822   -3.96743528
 H   +1.29468007   +1.18509978   -3.77739930
 H   -0.35529052   +1.77007376   -3.63408537
 H   +0.64417067   +1.61547913   -2.20235876
 H   +0.29578429   +1.94082842   +0.06007889
22
 * E =  +0.998 kcal/mol ; (11) 179_346_128_295
 C   +0.00000000   +0.00000000   +0.00000000
 C   +0.00000000   +0.00000000   +1.47389601
 O   +1.22310253   +0.00000000   +2.00078863
 O   -1.00075133   +0.00861244   +2.14100066
 C   +1.26675085   +0.01200921   +3.41575033
 H   +2.31642035   +0.00762296   +3.67954956
 H   +0.77864949   +0.90087771   +3.80314354
 H   +0.76826732   -0.86494329   +3.81667554
 C   +1.08689261   +0.27372486   -0.73915584
 C   +1.09403543   +0.38347188   -2.21871562
 C   +1.72629789   +1.67942316   -2.71494439
 C   +0.94597726   +2.91215173   -2.30649079
 H   -0.98652248   -0.02704650   -0.43761075
 H   +2.03629874   +0.38223570   -0.22968720
 H   +1.66086497   -0.46077053   -2.61899949
 H   +0.07853951   +0.29128339   -2.60314267
 H   +2.74733522   +1.74552027   -2.33734043
 H   +1.80421654   +1.63430381   -3.80019962
 H   +1.41264837   +3.81812665   -2.68504628
 H   -0.07097772   +2.87565934   -2.69363412
 H   +0.88022388   +2.99830945   -1.22377310
 H   -0.13978573   -1.96763500   -0.01913965
22
 * E =  +1.458 kcal/mol ; (12) 179_346_247_297
 C   +0.00000000   +0.00000000   +0.00000000
 C   +0.00000000   +0.00000000   +1.47422602
 O   +1.22326777   +0.00000000   +2.00046473
 O   -1.00052470   +0.00759153   +2.14153484
 C   +1.26805855   +0.01193831   +3.41543594
 H   +2.31790325   +0.00420506   +3.67843786
 H   +0.78336314   +0.90258581   +3.80304551
 H   +0.76684172   -0.86324467   +3.81679382
 C   +1.08654895   +0.27835649   -0.73891510
 C   +1.07936350   +0.37691681   -2.21981368
 C   +1.88276093   -0.73492384   -2.89478995
 C   +3.36260978   -0.70652066   -2.56804790
 H   -0.98691100   -0.02780062   -0.43715012
 H   +2.03289392   +0.38632678   -0.22675035
 H   +0.05288699   +0.35682140   -2.58138927
 H   +1.50448063   +1.33920304   -2.51436572
 H   +1.45908098   -1.69827200   -2.61264741
 H   +1.74786782   -0.64082146   -3.97158111
 H   +3.89811577   -1.47217164   -3.12372313
 H   +3.80252964   +0.25607702   -2.82491705
 H   +3.54761427   -0.88509777   -1.51124964
 H   -0.13493258   -1.96561936   -0.02480380
22
 * E =  +1.470 kcal/mol ; (13) 179_346_123_063
 C   +0.00000000   +0.00000000   +0.00000000
 C   +0.00000000   +0.00000000   +1.47398136
 O   +1.22321385   +0.00000000   +2.00047506
 O   -1.00055290   +0.00825338   +2.14135282
 C   +1.26781000   +0.01146463   +3.41542290
 H   +2.31765725   +0.00849478   +3.67852441
 H   +0.77860188   +0.89944913   +3.80346250
 H   +0.77091299   -0.86640400   +3.81633977
 C   +1.08695844   +0.27465451   -0.73927558
 C   +1.07684825   +0.39318315   -2.21834231
 C   +1.58698877   +1.73845301   -2.72999929
 C   +3.03548260   +2.01828163   -2.38159167
 H   -0.98680613   -0.02840462   -0.43729009
 H   +2.03454009   +0.37540386   -0.22790481
 H   +1.71125697   -0.39602221   -2.63161273
 H   +0.06959888   +0.21485511   -2.59053263
 H   +1.46691249   +1.75370545   -3.81251431
 H   +0.95179671   +2.53236317   -2.33825078
 H   +3.36909267   +2.95210196   -2.82707152
 H   +3.18610955   +2.10075827   -1.30757974
 H   +3.68680616   +1.22634985   -2.74845155
 H   -0.14120288   -1.96819663   -0.02004507
22
 * E =  +1.674 kcal/mol ; (14) 179_344_357_286
 C   +0.00000000   +0.00000000   +0.00000000
 C   +0.00000000   +0.00000000   +1.47401339
 O   +1.22217897   +0.00000000   +2.00295429
 O   -1.00154359   +0.00964646   +2.14006599
 C   +1.26385750   +0.01213062   +3.41790952
 H   +2.31319028   +0.00542200   +3.68310728
 H   +0.77737908   +0.90221362   +3.80455697
 H   +0.76287944   -0.86364961   +3.81826471
 C   +1.08547889   +0.30924665   -0.72850564
 C   +1.13503343   +0.51944993   -2.19988133
 C   -0.15134423   +0.30021400   -2.97523164
 C   -0.52959505   -1.16115943   -3.12535011
 H   -0.98787671   -0.04410238   -0.43186095
 H   +2.02335319   +0.41570709   -0.19983409
 H   +1.49755542   +1.53783982   -2.36146454
 H   +1.92246140   -0.12107480   -2.60710024
 H   -0.96181748   +0.85503810   -2.50163385
 H   -0.03069767   +0.73894059   -3.96460233
 H   -1.45806746   -1.27096622   -3.68038216
 H   +0.24404597   -1.70446437   -3.66530314
 H   -0.65769090   -1.65045095   -2.16289194
 H   -0.07337242   -1.96514248   +0.05282112
22
 * E =  +8.409 kcal/mol ; (15) 001_175_004_180
 C   +0.00000000   +0.00000000   +0.00000000
 C   +0.00000000   +0.00000000   +1.48433549
 O   +1.17755308   +0.00000000   +2.11748660
 O   -1.00682917   -0.00641151   +2.13464676
 C   +2.39931670   +0.02529928   +1.41701543
 H   +3.17017207   +0.07515816   +2.17592830
 H   +2.54060478   -0.87897666   +0.82899203
 H   +2.47262035   +0.90243840   +0.77759119
 C   -1.17743262   -0.09966869   -0.63844260
 C   -1.36704823   -0.17473599   -2.10691720
 C   -0.10773629   -0.23030193   -2.94648156
 C   -0.41114221   -0.29783395   -4.42937764
 H   +0.92697640   -0.09705665   -0.54044990
 H   -2.06614825   -0.08303566   -0.02076765
 H   -1.99892804   -1.03989407   -2.32432097
 H   -1.97109275   +0.68728472   -2.40635343
 H   +0.50417251   +0.64762419   -2.73710462
 H   +0.48362583   -1.09879109   -2.65399459
 H   +0.50090027   -0.33788007   -5.01918347
 H   -0.99989848   -1.18118611   -4.66984450
 H   -0.97692889   +0.57349710   -4.75391258
 H   +0.47368380   +1.93683514   -0.02104564
22
 * E =  +8.441 kcal/mol ; (16) 001_175_235_063
 C   +0.00000000   +0.00000000   +0.00000000
 C   +0.00000000   +0.00000000   +1.48446440
 O   +1.17646601   +0.00000000   +2.11905629
 O   -1.00824777   -0.00694029   +2.13262523
 C   +2.39923834   +0.02330916   +1.42003520
 H   +3.16929893   +0.06829227   +2.18002423
 H   +2.53817203   -0.87955179   +0.82938865
 H   +2.47635768   +0.90232412   +0.78364313
 C   -1.17153603   -0.10906901   -0.64625997
 C   -1.33066379   -0.21049728   -2.11664504
 C   -2.25399166   +0.86640839   -2.67884280
 C   -1.71957091   +2.26840047   -2.46966225
 H   +0.92633692   -0.08671754   -0.54581347
 H   -2.06957911   -0.09526075   -0.03976524
 H   -0.35719057   -0.16051957   -2.60444069
 H   -1.75377354   -1.19031877   -2.34865428
 H   -2.39867224   +0.67737536   -3.74153607
 H   -3.23534071   +0.77159616   -2.21340177
 H   -2.38453045   +3.01188485   -2.90200536
 H   -1.60831373   +2.49654828   -1.41139953
 H   -0.74150276   +2.38705330   -2.93340450
 H   +0.47345784   +1.94812975   +0.00739190
22
 * E =  +8.455 kcal/mol ; (17) 001_176_243_182
 C   +0.00000000   +0.00000000   +0.00000000
 C   +0.00000000   +0.00000000   +1.48453973
 O   +1.17659025   +0.00000000   +2.11894857
 O   -1.00817863   -0.00753690   +2.13259320
 C   +2.39925518   +0.02892671   +1.41996345
 H   +3.16894540   +0.08087480   +2.17988461
 H   +2.54386866   -0.87496013   +0.83220090
 H   +2.47096286   +0.90638828   +0.78084878
 C   -1.17251168   -0.09045727   -0.64760573
 C   -1.32483084   -0.15232767   -2.11960320
 C   -2.09125962   +1.04750630   -2.66746386
 C   -2.28277656   +0.96819835   -4.16780878
 H   +0.92557174   -0.10049889   -0.54481617
 H   -2.07098432   -0.06443550   -0.04317631
 H   -0.34864761   -0.21866013   -2.59943222
 H   -1.87110903   -1.06160046   -2.38150075
 H   -3.06059818   +1.10885988   -2.17297619
 H   -1.55549641   +1.95962307   -2.40689764
 H   -2.82808708   +1.83097900   -4.54171861
 H   -1.32566370   +0.93217812   -4.68497022
 H   -2.84180482   +0.07639235   -4.44553657
 H   +0.47645336   +1.94086158   -0.01217110
22
 * E =  +8.501 kcal/mol ; (18) 001_175_126_177
 C   +0.00000000   +0.00000000   +0.00000000
 C   +0.00000000   +0.00000000   +1.48429580
 O   +1.17662134   +0.00000000   +2.11893299
 O   -1.00810344   -0.00827189   +2.13252198
 C   +2.39933471   +0.02702742   +1.42004468
 H   +3.16917676   +0.07538755   +2.18005523
 H   +2.54144099   -0.87596612   +0.83031854
 H   +2.47357996   +0.90562895   +0.78270600
 C   -1.17165732   -0.10231027   -0.64701214
 C   -1.32522506   -0.18781103   -2.11753679
 C   -2.14101272   -1.39789181   -2.55585120
 C   -2.34438331   -1.43960730   -4.05619620
 H   +0.92610056   -0.08961117   -0.54565372
 H   -2.06999217   -0.09331783   -0.04172045
 H   -1.83485394   +0.71624700   -2.46277954
 H   -0.34852316   -0.19939178   -2.60087981
 H   -1.63970397   -2.30608456   -2.22291237
 H   -3.10712439   -1.37925161   -2.05151467
 H   -2.92469557   -2.30988312   -4.35178531
 H   -2.87277049   -0.55423213   -4.40521340
 H   -1.39177047   -1.48333732   -4.58108465
 H   +0.46825085   +1.94681345   +0.00209681
22
 * E =  +8.614 kcal/mol ; (19) 001_175_128_296
 C   +0.00000000   +0.00000000   +0.00000000
 C   +0.00000000   +0.00000000   +1.48431920
 O   +1.17638612   +0.00000000   +2.11910927
 O   -1.00826736   -0.00960055   +2.13245444
 C   +2.39938944   +0.02797385   +1.42058958
 H   +3.16879371   +0.07943389   +2.18083397
 H   +2.54344103   -0.87605070   +0.83291400
 H   +2.47216215   +0.90528211   +0.78137888
 C   -1.17220583   -0.09714469   -0.64653125
 C   -1.33174768   -0.17319560   -2.11785476
 C   -2.19816715   -1.34913485   -2.55713686
 C   -1.58392535   -2.69285838   -2.22191447
 H   +0.92546777   -0.09366808   -0.54595684
 H   -2.07016044   -0.08466157   -0.03994208
 H   -1.80140203   +0.75434175   -2.45441877
 H   -0.35574731   -0.22538914   -2.60035401
 H   -3.17870330   -1.26346106   -2.08829575
 H   -2.36388655   -1.27511348   -3.63077747
 H   -2.21380541   -3.51028332   -2.56351851
 H   -0.60941970   -2.80525676   -2.69485003
 H   -1.44418117   -2.80740994   -1.14886667
 H   +0.47239035   +1.94786670   -0.00103607
22
 * E =  +9.101 kcal/mol ; (20) 001_175_246_297
 C   +0.00000000   +0.00000000   +0.00000000
 C   +0.00000000   +0.00000000   +1.48463282
 O   +1.17614315   +0.00000000   +2.11970316
 O   -1.00851789   -0.00710154   +2.13231368
 C   +2.39939242   +0.02757125   +1.42159797
 H   +3.16856719   +0.07690287   +2.18221438
 H   +2.54273181   -0.87568008   +0.83260586
 H   +2.47330587   +0.90593000   +0.78393810
 C   -1.17243636   -0.09438643   -0.64757020
 C   -1.31494455   -0.15414857   -2.12176939
 C   -2.01291299   +1.07755865   -2.70042921
 C   -3.44496145   +1.24629845   -2.23343790
 H   +0.92572188   -0.09647348   -0.54543333
 H   -2.06776731   -0.07888023   -0.03981375
 H   -0.33560357   -0.26999693   -2.58315205
 H   -1.90110176   -1.03795943   -2.38389006
 H   -1.43279114   +1.96430196   -2.44658547
 H   -1.99249128   +0.99441939   -3.78627967
 H   -3.91536017   +2.09389488   -2.72528469
 H   -4.03823730   +0.36192754   -2.46085597
 H   -3.50489827   +1.41986185   -1.16168051
 H   +0.47414404   +1.94386632   -0.00959414
22
 * E =  +9.123 kcal/mol ; (21) 001_175_123_063
 C   +0.00000000   +0.00000000   +0.00000000
 C   +0.00000000   +0.00000000   +1.48438202
 O   +1.17639573   +0.00000000   +2.11929529
 O   -1.00824481   -0.00852207   +2.13254520
 C   +2.39940873   +0.02520742   +1.42085683
 H   +3.16902579   +0.07142435   +2.18122776
 H   +2.54008350   -0.87753770   +0.83043476
 H   +2.47565110   +0.90419497   +0.78443465
 C   -1.17196014   -0.10168650   -0.64701209
 C   -1.31588754   -0.18781868   -2.11949843
 C   -2.06639751   -1.43323229   -2.58804645
 C   -3.50003778   -1.50558334   -2.10111831
 H   +0.92646742   -0.08934719   -0.54530046
 H   -2.06698780   -0.08548876   -0.03878109
 H   -1.86571049   +0.69355093   -2.46123827
 H   -0.33434844   -0.14879581   -2.58913083
 H   -2.05304424   -1.44162460   -3.67715483
 H   -1.52095031   -2.31994133   -2.26623653
 H   -4.00859495   -2.36954051   -2.52129452
 H   -3.55820907   -1.59086704   -1.01867448
 H   -4.05889597   -0.61845043   -2.39507058
 H   +0.46889165   +1.94765919   -0.00112247
