22
 * E =  +0.000 kcal/mol ; (1) 180_180_217_185
 C   +0.00000000   +0.00000000   +0.00000000
 O   +0.00000000   +0.00000000   +1.41503182
 C   +1.20620213   +0.00000000   +1.98303222
 C   +1.10793570   -0.00116423   +3.44598695
 C   +2.21329133   -0.00118512   +4.19263261
 C   +2.23790384   -0.03295683   +5.65197160
 C   +3.31486657   +0.78225005   +6.32679314
 C   +3.32958316   +0.60142956   +7.83058982
 O   +2.22893436   +0.00221894   +1.34610940
 H   +4.11133705   +1.20007940   +8.29035979
 H   +0.50725804   +0.88194873   -0.37883002
 H   +3.50445682   -0.43878597   +8.09757602
 H   +2.38029553   +0.90114957   +8.27056230
 H   +3.16262323   +1.83497465   +6.08229556
 H   +4.28331094   +0.51018921   +5.90655642
 H   +2.49159520   -1.19944649   +5.96564169
 H   +1.25420099   +0.11234102   +6.09421614
 H   +3.16360001   +0.00012326   +3.67121232
 H   +0.11821082   +0.00020250   +3.87670014
 H   +0.50487579   -0.88334108   -0.37878068
 H   -1.04077202   +0.00121342   -0.29685893
 H   +2.73323601   -2.16227518   +6.32751243
22
 * E =  +0.031 kcal/mol ; (2) 180_179_009_180
 C   +0.00000000   +0.00000000   +0.00000000
 O   +0.00000000   +0.00000000   +1.41499669
 C   +1.20640357   +0.00000000   +1.98306126
 C   +1.10754967   +0.00200180   +3.44614940
 C   +2.21788791   -0.00799068   +4.18614362
 C   +2.27038944   +0.01610435   +5.64676461
 C   +0.99094673   -0.16212832   +6.42009781
 C   +1.21064888   -0.12049353   +7.91866691
 O   +2.22856593   -0.00268294   +1.34523174
 H   +0.27493126   -0.24452199   +8.45710734
 H   +0.50719398   +0.88198800   -0.37882073
 H   +1.64682657   +0.82858851   +8.22368746
 H   +1.88481789   -0.91296518   +8.23797933
 H   +0.53717498   -1.11382449   +6.13658621
 H   +0.28207431   +0.61291504   +6.12887078
 H   +2.68170727   +1.14068926   +5.94805226
 H   +3.08545147   -0.59494784   +6.03135166
 H   +3.16054878   -0.01254543   +3.65333787
 H   +0.11652354   +0.00174881   +3.87151104
 H   +0.50508878   -0.88320168   -0.37885824
 H   -1.04077754   +0.00126352   -0.29691569
 H   +2.95722308   +2.09612639   +6.30478372
22
 * E =  +0.048 kcal/mol ; (3) 180_180_217_069
 C   +0.00000000   +0.00000000   +0.00000000
 O   +0.00000000   +0.00000000   +1.41506156
 C   +1.20602324   +0.00000000   +1.98320125
 C   +1.10766010   -0.00053433   +3.44617831
 C   +2.21335436   +0.00191464   +4.19265140
 C   +2.24315053   -0.03301418   +5.65251089
 C   +3.32965592   +0.77954839   +6.31649086
 C   +3.10856501   +2.27347124   +6.16304700
 O   +2.22894860   +0.00268802   +1.34648284
 H   +3.89730716   +2.83740596   +6.65510446
 H   +0.50230814   +0.88479158   -0.37883410
 H   +2.15952173   +2.57518268   +6.60209370
 H   +3.09362987   +2.56360458   +5.11464073
 H   +4.29316055   +0.50244869   +5.88853715
 H   +3.37266629   +0.51773455   +7.37255837
 H   +2.48210787   -1.19731117   +5.96632761
 H   +1.26222713   +0.12699736   +6.09586379
 H   +3.16347792   +0.00371112   +3.67003367
 H   +0.11806097   +0.00079066   +3.87712494
 H   +0.50981925   -0.88050062   -0.37872811
 H   -1.04076320   -0.00436315   -0.29682660
 H   +2.70405846   -2.15423011   +6.36423853
22
 * E =  +0.369 kcal/mol ; (4) 180_180_014_072
 C   +0.00000000   +0.00000000   +0.00000000
 O   +0.00000000   +0.00000000   +1.41501395
 C   +1.20638342   +0.00000000   +1.98328085
 C   +1.10673126   +0.00226635   +3.44615604
 C   +2.21691103   -0.00461080   +4.18661579
 C   +2.27975021   +0.03711888   +5.64834138
 C   +1.02428700   -0.22206136   +6.44223037
 C   +0.59053461   -1.67711771   +6.40000224
 O   +2.22868048   -0.00328736   +1.34569741
 H   -0.31090174   -1.83136790   +6.98810700
 H   +0.50845481   +0.88126491   -0.37879003
 H   +1.36558299   -2.32479927   +6.80503753
 H   +0.38774227   -2.00281369   +5.38279595
 H   +0.22240057   +0.42047987   +6.07986869
 H   +1.20308082   +0.07362627   +7.47494969
 H   +2.62260227   +1.18118279   +5.92774261
 H   +3.13381798   -0.52190493   +6.02669811
 H   +3.15745114   -0.00868681   +3.64992704
 H   +0.11460642   +0.00208591   +3.86953068
 H   +0.50372419   -0.88395987   -0.37890367
 H   -1.04077640   +0.00279668   -0.29688578
 H   +2.85263775   +2.15290787   +6.30387204
22
 * E =  +0.513 kcal/mol ; (5) 180_180_218_304
 C   +0.00000000   +0.00000000   +0.00000000
 O   +0.00000000   +0.00000000   +1.41501108
 C   +1.20602004   +0.00000000   +1.98326181
 C   +1.10798528   -0.00000245   +3.44615696
 C   +2.21451345   +0.00218056   +4.19208519
 C   +2.22957798   -0.02991253   +5.65191305
 C   +3.27909701   +0.79535080   +6.36436797
 C   +4.70253833   +0.48837984   +5.94247085
 O   +2.22896549   +0.00196892   +1.34643725
 H   +5.41159705   +1.04414220   +6.55030443
 H   +0.50409077   +0.88374727   -0.37888652
 H   +4.88777109   +0.75453441   +4.90484584
 H   +4.92280057   -0.57129619   +6.06003123
 H   +3.17272385   +0.62140757   +7.43433410
 H   +3.06344433   +1.85306333   +6.20442921
 H   +2.49373497   -1.18699173   +5.97100842
 H   +1.23664679   +0.10179363   +6.07510728
 H   +3.16032565   -0.00120645   +3.66528790
 H   +0.11825790   +0.00088526   +3.87705054
 H   +0.50780810   -0.88158961   -0.37890895
 H   -1.04079312   -0.00223091   -0.29679129
 H   +2.73814047   -2.13431393   +6.38977983
22
 * E =  +0.657 kcal/mol ; (6) 180_000_218_184
 C   +0.00000000   +0.00000000   +0.00000000
 O   +0.00000000   +0.00000000   +1.41505379
 C   +1.20797879   +0.00000000   +1.98118132
 C   +1.17014906   -0.00145663   +3.44576411
 C   +0.04450806   -0.00322536   +4.16284510
 C   -0.00560230   +0.02671427   +5.62253188
 C   -1.08410314   -0.80147473   +6.27857783
 C   -1.12441554   -0.62421930   +7.78236612
 O   +2.22755659   -0.00014534   +1.33939951
 H   -1.90727266   -1.23164089   +8.22857064
 H   +0.50729851   +0.88149116   -0.37961837
 H   -1.31360043   +0.41362655   +8.04870621
 H   -0.17921976   -0.91557968   +8.23636386
 H   -0.91661020   -1.85201577   +6.03445081
 H   -2.04913876   -0.53882934   +5.84425232
 H   -0.27843289   +1.19082288   +5.93395768
 H   +0.97244389   -0.10849928   +6.08005134
 H   -0.90040456   -0.00534572   +3.63410379
 H   +2.14333288   -0.00261799   +3.91259859
 H   +0.50290350   -0.88398688   -0.37978063
 H   -1.04108891   +0.00261215   -0.29618262
 H   -0.54060169   +2.14813718   +6.28955350
22
 * E =  +0.688 kcal/mol ; (7) 180_000_009_180
 C   +0.00000000   +0.00000000   +0.00000000
 O   +0.00000000   +0.00000000   +1.41495146
 C   +1.20791908   +0.00000000   +1.98127508
 C   +1.17146162   -0.00012062   +3.44600627
 C   +0.04180658   +0.00909857   +4.15748589
 C   -0.03570049   -0.01244636   +5.61835210
 C   +1.23036460   +0.16271766   +6.41383545
 C   +0.98286485   +0.12708231   +7.90820429
 O   +2.22714379   +0.00073425   +1.33874076
 H   +1.90924928   +0.24864092   +8.46299727
 H   +0.50440872   +0.88305736   -0.37992561
 H   +0.53700691   -0.81904088   +8.20841494
 H   +0.30674911   +0.92374295   +8.21270846
 H   +1.69361320   +1.11134061   +6.13546824
 H   +1.94112662   -0.61623217   +6.13842168
 H   -0.45697846   -1.13515533   +5.91491072
 H   -0.85478053   +0.60279975   +5.98767423
 H   -0.89585074   +0.01181654   +3.61832062
 H   +2.14635227   +0.00235618   +3.90704690
 H   +0.50555198   -0.88242086   -0.37980989
 H   -1.04113114   -0.00075808   -0.29613778
 H   -0.74513881   -2.08821979   +6.26543828
22
 * E =  +0.723 kcal/mol ; (8) 180_000_217_069
 C   +0.00000000   +0.00000000   +0.00000000
 O   +0.00000000   +0.00000000   +1.41508802
 C   +1.20807678   +0.00000000   +1.98119517
 C   +1.16980138   +0.00115700   +3.44578422
 C   +0.04311672   +0.00467235   +4.16160155
 C   -0.01361059   +0.04343542   +5.62155361
 C   -1.10966177   -0.76965800   +6.26870050
 C   -0.88160753   -2.26366030   +6.12634712
 O   +2.22759053   -0.00236080   +1.33937085
 H   -1.67803685   -2.82776356   +6.60569508
 H   +0.50592836   +0.88232686   -0.37951680
 H   +0.05961040   -2.56055499   +6.58485688
 H   -0.84486441   -2.55881419   +5.07984414
 H   -2.06637471   -0.49711757   +5.82253867
 H   -1.17299519   -0.50346648   +7.32263008
 H   -0.26107125   +1.20868160   +5.92841927
 H   +0.95988080   -0.11343326   +6.08188351
 H   -0.90087772   +0.00527901   +3.63030441
 H   +2.14251964   -0.00313035   +3.91351014
 H   +0.50435872   -0.88314627   -0.37978171
 H   -1.04107647   +0.00110324   -0.29621485
 H   -0.49485537   +2.16503594   +6.31683202
22
 * E =  +1.041 kcal/mol ; (9) 180_000_014_071
 C   +0.00000000   +0.00000000   +0.00000000
 O   +0.00000000   +0.00000000   +1.41497085
 C   +1.20781403   +0.00000000   +1.98135710
 C   +1.17212421   -0.00014587   +3.44596327
 C   +0.04278506   +0.00526555   +4.15814866
 C   -0.04540947   -0.03404632   +5.62002394
 C   +1.19501852   +0.22653565   +6.43653212
 C   +1.63121795   +1.68098654   +6.39720292
 O   +2.22714757   +0.00107782   +1.33886917
 H   +2.52068319   +1.83627787   +7.00286078
 H   +0.50239015   +0.88425651   -0.37983307
 H   +0.84887830   +2.33111062   +6.78401299
 H   +1.85573359   +2.00240133   +5.38326146
 H   +2.00315142   -0.41840359   +6.09314057
 H   +0.99521046   -0.06493526   +7.46655955
 H   -0.39450376   -1.17754980   +5.89580954
 H   -0.90552256   +0.52682914   +5.98187102
 H   -0.89284021   +0.00648983   +3.61547551
 H   +2.14832003   +0.00339035   +3.90476003
 H   +0.50781626   -0.88118727   -0.37963167
 H   -1.04110281   -0.00321143   -0.29616325
 H   -0.63502514   -2.14808650   +6.26642450
22
 * E =  +1.193 kcal/mol ; (10) 180_000_218_304
 C   +0.00000000   +0.00000000   +0.00000000
 O   +0.00000000   +0.00000000   +1.41504972
 C   +1.20825214   +0.00000000   +1.98103891
 C   +1.17084055   -0.00091319   +3.44553790
 C   +0.04461815   -0.00025376   +4.16284182
 C   +0.00589618   +0.03346611   +5.62320346
 C   -1.04853070   -0.79782337   +6.32089094
 C   -2.46726607   -0.50464536   +5.87407810
 O   +2.22753049   -0.00072067   +1.33875534
 H   -3.18212780   -1.06156489   +6.47399383
 H   +0.50181069   +0.88464582   -0.37963435
 H   -2.63377528   -0.77988832   +4.83545892
 H   -2.69742953   +0.55412374   +5.98064222
 H   -0.96220200   -0.61855835   +7.39174229
 H   -0.82135607   -1.85436974   +6.16944346
 H   -0.27131978   +1.19001160   +5.93728204
 H   +0.99320795   -0.09146364   +6.06112580
 H   -0.89641391   +0.00450075   +3.63003713
 H   +2.14434602   -0.00357247   +3.91188544
 H   +0.50846747   -0.88079501   -0.37974266
 H   -1.04106973   -0.00359164   -0.29625933
 H   -0.53069435   +2.13459609   +6.34827832
22
 * E =  +1.449 kcal/mol ; (11) 180_179_000_287
 C   +0.00000000   +0.00000000   +0.00000000
 O   +0.00000000   +0.00000000   +1.41505092
 C   +1.20666659   +0.00000000   +1.98288388
 C   +1.10774018   -0.00021804   +3.44590508
 C   +2.21895336   -0.02584593   +4.18392825
 C   +2.29594810   -0.03849051   +5.64445919
 C   +1.02295763   -0.01941296   +6.45447827
 C   +0.31155916   +1.32302460   +6.45668612
 O   +2.22860569   -0.00076502   +1.34476235
 H   -0.62095104   +1.26692905   +7.01241827
 H   +0.50400348   +0.88380322   -0.37885252
 H   +0.08159043   +1.66440572   +5.45101853
 H   +0.93268466   +2.08360814   +6.92441278
 H   +1.25982515   -0.29721316   +7.47970176
 H   +0.35538712   -0.79784977   +6.07843118
 H   +2.92145538   +0.99591784   +5.96101281
 H   +3.01320765   -0.78293163   +5.98440150
 H   +3.15790424   -0.04289370   +3.64389618
 H   +0.11611300   +0.00234707   +3.86977676
 H   +0.50818789   -0.88139665   -0.37884290
 H   -1.04078177   -0.00230282   -0.29690345
 H   +3.41759836   +1.83369293   +6.30951924
22
 * E =  +2.113 kcal/mol ; (12) 180_359_359_287
 C   +0.00000000   +0.00000000   +0.00000000
 O   +0.00000000   +0.00000000   +1.41498524
 C   +1.20781561   +0.00000000   +1.98121193
 C   +1.17290411   -0.00099029   +3.44594613
 C   +0.04385110   +0.01901749   +4.15770999
 C   -0.05524815   +0.02819387   +5.61846126
 C   +1.20412080   +0.00286250   +6.44902994
 C   +1.91119984   -1.34185276   +6.46026414
 O   +2.22706569   +0.00113234   +1.33855697
 H   +2.83334955   -1.28978916   +7.03326957
 H   +0.50609253   +0.88214147   -0.37978350
 H   +2.15956970   -1.68120001   +5.45836745
 H   +1.27921849   -2.10168250   +6.91452602
 H   +0.95041713   +0.27901510   +7.47063280
 H   +1.88050786   +0.78019137   +6.08678795
 H   -0.68928125   -1.00572318   +5.92202860
 H   -0.77532401   +0.77415217   +5.94929865
 H   -0.89147584   +0.03446340   +3.61396058
 H   +2.14940337   -0.00068226   +3.90340167
 H   +0.50417733   -0.88330156   -0.37960208
 H   -1.04111185   +0.00090502   -0.29614487
 H   -1.19573849   -1.84214570   +6.25575012
22
 * E =  +8.984 kcal/mol ; (13) 359_179_217_185
 C   +0.00000000   +0.00000000   +0.00000000
 O   +0.00000000   +0.00000000   +1.40793842
 C   +1.13754140   +0.00000000   +2.11522283
 C   +2.41852585   -0.02645511   +1.38384529
 C   +3.56145290   -0.00137931   +2.07444655
 C   +4.89602331   +0.00672951   +1.48401299
 C   +5.96086886   -0.77684356   +2.21395069
 C   +7.33253114   -0.61968140   +1.59108971
 O   +1.06809967   +0.01830226   +3.31341642
 H   +8.07767322   -1.19523552   +2.13352300
 H   +0.49802552   +0.88004421   -0.40082949
 H   +7.64703382   +0.42194289   +1.59517339
 H   +7.33601334   -0.96287406   +0.55822195
 H   +5.67679000   -1.83051396   +2.22229969
 H   +5.98328034   -0.46053737   +3.25681716
 H   +5.28357267   +1.17512934   +1.53327515
 H   +4.88736770   -0.18450493   +0.41245744
 H   +3.48409659   +0.03843232   +3.15453928
 H   +2.43499702   -0.06867449   +0.30654285
 H   +0.45895254   -0.90128580   -0.40057272
 H   -1.04251146   +0.02249931   -0.29241790
 H   +5.71447877   +2.14393929   +1.55393629
22
 * E =  +9.026 kcal/mol ; (14) 359_179_216_069
 C   +0.00000000   +0.00000000   +0.00000000
 O   +0.00000000   +0.00000000   +1.40796860
 C   +1.13718910   +0.00000000   +2.11559362
 C   +2.41867940   -0.02294317   +1.38497823
 C   +3.56108880   -0.00333261   +2.07697021
 C   +4.89875687   +0.01163585   +1.49191830
 C   +5.95798600   -0.76899397   +2.23420650
 C   +5.72750729   -2.26753517   +2.16083904
 O   +1.06728162   +0.01472098   +3.31388548
 H   +6.50593997   -2.80830297   +2.69342593
 H   +0.49429663   +0.88216796   -0.40077759
 H   +5.72847863   -2.61333975   +1.12882867
 H   +4.77040353   -2.54087969   +2.59993814
 H   +5.97214844   -0.44756126   +3.27554841
 H   +6.93445469   -0.52296324   +1.82008723
 H   +5.27811890   +1.17794550   +1.53112845
 H   +4.89343964   -0.19174987   +0.42259061
 H   +3.48182308   +0.03077178   +3.15753350
 H   +2.43644190   -0.05993384   +0.30753111
 H   +0.46274375   -0.89932396   -0.40058185
 H   -1.04260380   +0.01818090   -0.29235092
 H   +5.73090195   +2.14057234   +1.52222867
22
 * E =  +9.440 kcal/mol ; (15) 002_182_014_071
 C   +0.00000000   +0.00000000   +0.00000000
 O   +0.00000000   +0.00000000   +1.40769107
 C   +1.13722309   +0.00000000   +2.11615111
 C   +2.41805630   +0.04024465   +1.38486925
 C   +3.55730414   +0.00314189   +2.08205409
 C   +4.91017748   -0.00360617   +1.52494986
 C   +5.11072906   +0.35463093   +0.07394355
 C   +4.89161737   +1.83178463   -0.20372277
 O   +1.06562031   -0.02894547   +3.31395517
 H   +5.04742261   +2.05787547   -1.25578772
 H   +0.44802407   +0.90668265   -0.40103565
 H   +5.58493788   +2.44122719   +0.37224909
 H   +3.88420645   +2.14253167   +0.06240340
 H   +4.45020485   -0.24878559   -0.54846303
 H   +6.12463662   +0.07854615   -0.21147248
 H   +5.30323214   -1.15803086   +1.64232845
 H   +5.61149263   +0.51007407   +2.18007135
 H   +3.46253311   -0.06044934   +3.15854252
 H   +2.42777251   +0.10803562   +0.30959701
 H   +0.50848080   -0.87401825   -0.40094697
 H   -1.04217731   -0.03474047   -0.29251987
 H   +5.74045464   -2.13421947   +1.62316962
22
 * E =  +9.491 kcal/mol ; (16) 359_180_218_304
 C   +0.00000000   +0.00000000   +0.00000000
 O   +0.00000000   +0.00000000   +1.40792030
 C   +1.13723712   +0.00000000   +2.11563404
 C   +2.41890197   -0.01622986   +1.38539865
 C   +3.56139188   -0.00782426   +2.07830356
 C   +4.89257977   +0.00939247   +1.47964390
 C   +5.97897484   -0.79959311   +2.15517166
 C   +6.19329892   -0.45466389   +3.61578494
 O   +1.06689505   +0.00972156   +3.31402157
 H   +7.04255017   -1.00057865   +4.01788768
 H   +0.48976030   +0.88475810   -0.40069866
 H   +5.32963080   -0.70494692   +4.22655464
 H   +6.39311403   +0.60839315   +3.73909938
 H   +6.90545433   -0.64042292   +1.60507643
 H   +5.74248413   -1.86002657   +2.05387601
 H   +5.29044590   +1.16705705   +1.55842350
 H   +4.86285507   -0.14851759   +0.40397444
 H   +3.47728841   +0.01656343   +3.15701942
 H   +2.43688319   -0.03821863   +0.30747465
 H   +0.46764315   -0.89677823   -0.40058427
 H   -1.04266112   +0.01277321   -0.29243451
 H   +5.77493203   +2.11903384   +1.57723775
22
 * E = +10.536 kcal/mol ; (17) 359_178_000_287
 C   +0.00000000   +0.00000000   +0.00000000
 O   +0.00000000   +0.00000000   +1.40763050
 C   +1.13731672   +0.00000000   +2.11616276
 C   +2.41835404   -0.01234373   +1.38410067
 C   +3.55625901   +0.03127134   +2.08268170
 C   +4.91349523   +0.03460471   +1.53933634
 C   +5.11923815   -0.01302425   +0.04505229
 C   +4.83160686   -1.36957925   -0.57581410
 O   +1.06531385   +0.01037313   +3.31420938
 H   +4.93990300   -1.33343823   -1.65680928
 H   +0.48859365   +0.88540728   -0.40090926
 H   +3.82683857   -1.71718568   -0.35017961
 H   +5.52449621   -2.11742645   -0.19717889
 H   +6.14851500   +0.26491336   -0.17275604
 H   +4.49709353   +0.75467381   -0.42073133
 H   +5.46230325   -0.98914416   +1.99528180
 H   +5.52124130   +0.78891823   +2.03506887
 H   +3.45870966   +0.07148604   +3.16045749
 H   +2.42805815   -0.03782204   +0.30734848
 H   +0.46866886   -0.89609754   -0.40113504
 H   -1.04267338   +0.01125926   -0.29259253
 H   +5.99063957   -1.82228473   +2.31398762
