21
 * E =  +0.000 kcal/mol ; (1) 120_296_290_172_179
 C   +0.00000000   +0.00000000   +0.00000000
 C   +0.00000000   +0.00000000   +1.32524150
 C   +1.21822802   +0.00000000   +2.18406981
 C   +1.29473438   +1.21550704   +3.10199988
 C   +1.41050349   +2.52673426   +2.35409134
 C   +2.73428946   +2.69563952   +1.67470220
 O   +2.74547346   +3.76398553   +0.88061901
 C   +3.97226167   +4.01820016   +0.22035443
 O   +3.69220627   +1.98416095   +1.82095577
 H   +3.81025620   +4.90826494   -0.37361017
 H   -0.91832877   -0.00003673   -0.56701765
 H   +4.24221194   +3.17975855   -0.41409253
 H   +4.76593061   +4.18032861   +0.94307799
 H   +0.62972838   +2.63119802   +1.60235042
 H   +1.29431716   +3.37493512   +3.02869811
 H   +2.15136030   +1.10593001   +3.76346922
 H   +0.40545780   +1.25118220   +3.73108980
 H   +2.11356066   -0.04659733   +1.56694761
 H   +1.21619605   -0.89688639   +2.80517879
 H   -0.95149292   +0.00864828   +1.84688710
 H   +0.92418542   -0.00950365   -0.56107014
21
 * E =  +0.165 kcal/mol ; (2) 119_178_291_167_178
 C   +0.00000000   +0.00000000   +0.00000000
 C   +0.00000000   +0.00000000   +1.32474375
 C   +1.21767546   +0.00000000   +2.18244067
 C   +1.29508531   +1.22965796   +3.07629274
 C   +2.50227014   +1.21687607   +3.98964443
 C   +2.41238146   +0.17259394   +5.06024600
 O   +3.57966535   -0.00536641   +5.67408679
 C   +3.57291435   -0.94877427   +6.73115051
 O   +1.41783206   -0.42991014   +5.36387636
 H   +4.58465295   -0.97132304   +7.11454308
 H   -0.91860930   +0.00329727   -0.56619058
 H   +3.28155697   -1.92745841   +6.36306774
 H   +2.87685875   -0.64422309   +7.50646537
 H   +3.42814087   +1.06347744   +3.43739584
 H   +2.61514456   +2.17376398   +4.49997795
 H   +0.39332436   +1.29228509   +3.68350613
 H   +1.32759948   +2.12401757   +2.45644763
 H   +2.10741577   -0.05766493   +1.55427449
 H   +1.20789017   -0.88710611   +2.81735045
 H   -0.94829361   +0.00760975   +1.85017228
 H   +0.92314376   -0.00813314   -0.56288921
21
 * E =  +0.248 kcal/mol ; (3) 121_295_178_174_179
 C   +0.00000000   +0.00000000   +0.00000000
 C   +0.00000000   +0.00000000   +1.32492133
 C   +1.21641434   +0.00000000   +2.18709985
 C   +1.28468625   +1.20561363   +3.11568351
 C   +1.42776087   +2.50794968   +2.36106332
 C   +1.44259666   +3.69993546   +3.26377788
 O   +1.69211475   +4.82274958   +2.59185276
 C   +1.70722099   +6.00561608   +3.37040069
 O   +1.25059912   +3.68020420   +4.44978028
 H   +1.91959055   +6.81194438   +2.68040887
 H   -0.91866417   -0.00082095   -0.56620868
 H   +2.47443560   +5.94610508   +4.13610251
 H   +0.74502391   +6.15669767   +3.84982140
 H   +2.33925386   +2.52559252   +1.76388241
 H   +0.61238383   +2.64169169   +1.64971799
 H   +2.12098463   +1.09215193   +3.80258831
 H   +0.39176905   +1.24867636   +3.73772790
 H   +2.10800712   -0.04180455   +1.56046500
 H   +1.21878069   -0.90448614   +2.79694919
 H   -0.95005448   +0.00737822   +1.84851338
 H   +0.92336038   -0.00599443   -0.56255200
21
 * E =  +0.401 kcal/mol ; (4) 242_060_278_155_178
 C   +0.00000000   +0.00000000   +0.00000000
 C   +0.00000000   +0.00000000   +1.32534974
 C   +1.22658319   +0.00000000   +2.17231525
 C   +1.34888537   -1.23198985   +3.06332233
 C   +1.40068258   -2.53027662   +2.28072839
 C   +0.04593799   -3.02624191   +1.87454611
 O   +0.10543081   -3.80691275   +0.79980974
 C   -1.13255206   -4.34657719   +0.37432679
 O   -0.97886656   -2.79914125   +2.46058230
 H   -0.90884963   -4.95463962   -0.49261423
 H   -0.91928073   -0.00605925   -0.56543232
 H   -1.82042686   -3.54814561   +0.11390109
 H   -1.57539254   -4.94947862   +1.16100626
 H   +2.02443136   -2.44667957   +1.39324844
 H   +1.83502399   -3.32382615   +2.89000241
 H   +0.50919642   -1.27712324   +3.75495883
 H   +2.25283430   -1.13910934   +3.66193224
 H   +1.22338406   +0.88560345   +2.80958576
 H   +2.10652259   +0.07523380   +1.53213451
 H   -0.94530977   -0.02644691   +1.85387832
 H   +0.92288063   +0.01203082   -0.56356191
21
 * E =  +0.410 kcal/mol ; (5) 119_176_068_192_182
 C   +0.00000000   +0.00000000   +0.00000000
 C   +0.00000000   +0.00000000   +1.32452710
 C   +1.22053907   +0.00000000   +2.17936121
 C   +1.30619380   +1.23522934   +3.06471322
 C   +2.48353962   +1.20078185   +4.01572764
 C   +3.80514885   +1.31656761   +3.31935985
 O   +4.81615923   +1.02221698   +4.13388479
 C   +6.10884523   +1.14694220   +3.56779527
 O   +3.96540087   +1.65224360   +2.17690255
 H   +6.80314792   +0.87339351   +4.35155485
 H   -0.91894151   +0.00704362   -0.56579003
 H   +6.28315294   +2.16761906   +3.24185630
 H   +6.21439430   +0.48373706   +2.71500689
 H   +2.43560034   +2.02695773   +4.72565973
 H   +2.49231542   +0.29257896   +4.61668116
 H   +0.39077354   +1.32911374   +3.64847671
 H   +1.37643174   +2.12017726   +2.43541778
 H   +2.10843473   -0.06000351   +1.55291003
 H   +1.21086513   -0.88822867   +2.81660769
 H   -0.94965009   +0.01199346   +1.84852069
 H   +0.92375980   -0.00564819   -0.56121205
21
 * E =  +0.550 kcal/mol ; (6) 121_178_182_184_181
 C   +0.00000000   +0.00000000   +0.00000000
 C   +0.00000000   +0.00000000   +1.32441795
 C   +1.21953486   +0.00000000   +2.18065240
 C   +1.27877527   +1.20335994   +3.10861837
 C   +2.49935435   +1.17262408   +4.00024261
 C   +2.55133078   +2.32480065   +4.95391719
 O   +3.67948930   +2.32444053   +5.66191483
 C   +3.80664764   +3.37682324   +6.60154226
 O   +1.69614605   +3.15695030   +5.08998838
 H   +4.76590192   +3.23168814   +7.08115972
 H   -0.91869747   +0.00540078   -0.56588884
 H   +3.00410805   +3.33269622   +7.33122185
 H   +3.77166836   +4.33888115   +6.09999401
 H   +2.53198711   +0.25773556   +4.59337214
 H   +3.42114108   +1.17728508   +3.41908947
 H   +0.38389248   +1.24302830   +3.72785855
 H   +1.27709401   +2.12081590   +2.52302227
 H   +2.10784496   -0.03076859   +1.54903740
 H   +1.23335205   -0.91136659   +2.78375878
 H   -0.94866168   +0.01029286   +1.84932683
 H   +0.92302958   -0.00664179   -0.56293319
21
 * E =  +0.565 kcal/mol ; (7) 359_182_291_169_178
 C   +0.00000000   +0.00000000   +0.00000000
 C   +0.00000000   +0.00000000   +1.32521148
 C   +1.20004654   +0.00000000   +2.21214996
 C   +2.53351729   -0.02906789   +1.49529339
 C   +3.70916793   -0.08807328   +2.44730195
 C   +3.90219624   +1.17680149   +3.22669498
 O   +4.78306816   +1.01591430   +4.21182037
 C   +5.05844570   +2.17631692   +4.97644287
 O   +3.36115153   +2.22568058   +3.00137087
 H   +5.78567517   +1.87585506   +5.71942692
 H   -0.92425988   +0.00423772   -0.55648870
 H   +4.15330521   +2.53971010   +5.45281921
 H   +5.46054720   +2.96097194   +4.34320936
 H   +3.61882799   -0.91296757   +3.15270277
 H   +4.63983176   -0.26184498   +1.90668468
 H   +2.62802206   +0.85580420   +0.86801632
 H   +2.57552694   -0.89666401   +0.83786527
 H   +1.12877750   -0.85880807   +2.88523188
 H   +1.15597734   +0.88254601   +2.85236804
 H   -0.95306534   +0.00468787   +1.84026991
 H   +0.91329307   +0.00142403   -0.57623049
21
 * E =  +0.859 kcal/mol ; (8) 009_070_071_187_181
 C   +0.00000000   +0.00000000   +0.00000000
 C   +0.00000000   +0.00000000   +1.32569811
 C   +1.19237463   +0.00000000   +2.22684095
 C   +2.53698990   +0.22356861   +1.55979209
 C   +2.73067385   +1.63755948   +1.04863047
 C   +2.91714133   +2.63173755   +2.15350165
 O   +2.93256780   +3.87960798   +1.69066600
 C   +3.13132862   +4.88803166   +2.66517300
 O   +3.05404825   +2.36834876   +3.31837468
 H   +3.11634344   +5.82696062   +2.12721246
 H   -0.92371701   -0.02165803   -0.55699095
 H   +4.08464698   +4.74953516   +3.16565964
 H   +2.33890939   +4.85997024   +3.40654058
 H   +3.61242504   +1.70940166   +0.41183662
 H   +1.89314268   +1.96948580   +0.43823479
 H   +2.66316359   -0.47645157   +0.73504968
 H   +3.32268937   +0.00647421   +2.27977711
 H   +1.20900559   -0.95474402   +2.75635835
 H   +1.05191122   +0.74921172   +3.00692123
 H   -0.95652626   -0.02000824   +1.83439619
 H   +0.91256768   +0.01687947   -0.57834347
21
 * E =  +0.933 kcal/mol ; (9) 245_297_293_165_178
 C   +0.00000000   +0.00000000   +0.00000000
 C   +0.00000000   +0.00000000   +1.32515363
 C   +1.22467255   +0.00000000   +2.17604191
 C   +1.39607184   -1.26628120   +3.00993313
 C   +0.29195763   -1.50280962   +4.02049308
 C   +0.26740006   -0.47612302   +5.11097041
 O   -0.87403230   -0.51030440   +5.79497359
 C   -0.96063882   +0.39790413   +6.87899253
 O   +1.16213571   +0.28175043   +5.37453031
 H   -1.93649619   +0.24100831   +7.31967325
 H   -0.91814830   -0.00122738   -0.56708455
 H   -0.86012718   +1.41940707   +6.52597462
 H   -0.17733155   +0.19876897   +7.60368356
 H   -0.69286547   -1.54540566   +3.56083693
 H   +0.42683059   -2.46727707   +4.51132507
 H   +2.34387172   -1.20593875   +3.54097935
 H   +1.44865055   -2.12767960   +2.34609757
 H   +1.20754609   +0.85703940   +2.85026483
 H   +2.09950183   +0.12071765   +1.53908272
 H   -0.95455806   +0.00256431   +1.83884375
 H   +0.92372408   +0.00711118   -0.56201159
21
 * E =  +1.119 kcal/mol ; (10) 120_179_298_319_182
 C   +0.00000000   +0.00000000   +0.00000000
 C   +0.00000000   +0.00000000   +1.32456450
 C   +1.21898113   +0.00000000   +2.18091192
 C   +1.28765036   +1.21699421   +3.09175526
 C   +2.51237206   +1.20912489   +3.98927545
 C   +2.58037530   +0.04950293   +4.93650919
 O   +1.39169781   -0.23678011   +5.46718225
 C   +1.38555115   -1.30015336   +6.40304598
 O   +3.57978831   -0.55222958   +5.22256566
 H   +0.35833014   -1.40423379   +6.72755419
 H   -0.91873940   +0.00524266   -0.56588739
 H   +2.03082123   -1.06760561   +7.24438164
 H   +1.73464437   -2.21643728   +5.93731737
 H   +3.43289209   +1.19514100   +3.41255693
 H   +2.53063763   +2.11229143   +4.59982923
 H   +0.39088491   +1.26345626   +3.70710458
 H   +1.30356106   +2.12052560   +2.48446047
 H   +2.10945657   -0.04640284   +1.55392165
 H   +1.21997960   -0.90070483   +2.79959753
 H   -0.94868762   +0.00999899   +1.84954286
 H   +0.92301027   -0.00913064   -0.56283745
21
 * E =  +1.135 kcal/mol ; (11) 011_071_184_188_181
 C   +0.00000000   +0.00000000   +0.00000000
 C   +0.00000000   +0.00000000   +1.32527411
 C   +1.19774628   +0.00000000   +2.22099410
 C   +2.53518798   +0.25376919   +1.55204872
 C   +2.69247917   +1.68505381   +1.08390284
 C   +3.97098226   +1.91393596   +0.34280271
 O   +4.16536564   +3.20622001   +0.08472023
 C   +5.34587955   +3.51032552   -0.63618595
 O   +4.74274023   +1.05877759   +0.00081787
 H   +5.34880604   +4.58546163   -0.76024898
 H   -0.92410864   -0.02532431   -0.55611694
 H   +5.33913043   +3.01435034   -1.60182438
 H   +6.22203889   +3.18711440   -0.08273602
 H   +1.87548919   +1.98076393   +0.42615272
 H   +2.65905826   +2.38169943   +1.92090014
 H   +2.67817039   -0.42331784   +0.71218167
 H   +3.33594867   +0.02264881   +2.25164431
 H   +1.22880138   -0.96360823   +2.73346992
 H   +1.03828862   +0.73554552   +3.01283665
 H   -0.95489660   -0.02414477   +1.83656594
 H   +0.91275657   +0.01714194   -0.57803410
21
 * E =  +1.136 kcal/mol ; (12) 121_295_179_309_181
 C   +0.00000000   +0.00000000   +0.00000000
 C   +0.00000000   +0.00000000   +1.32484320
 C   +1.21754726   +0.00000000   +2.18499030
 C   +1.28744589   +1.20919440   +3.10958042
 C   +1.43154213   +2.51208594   +2.34071478
 C   +1.48649434   +3.72303941   +3.21621683
 O   +0.47733433   +3.75492300   +4.08717032
 C   +0.44738253   +4.88492894   +4.94008566
 O   +2.31898398   +4.58749239   +3.15874754
 H   -0.41888653   +4.75438091   +5.57570302
 H   -0.91878429   -0.00068430   -0.56596745
 H   +0.36010095   +5.79701168   +4.35788285
 H   +1.35398949   +4.93513309   +5.53494926
 H   +2.33417503   +2.51487467   +1.73661524
 H   +0.58488975   +2.63012909   +1.66378240
 H   +2.13144882   +1.09166446   +3.78821432
 H   +0.39250677   +1.25440094   +3.72799925
 H   +2.10889327   -0.04260424   +1.55865958
 H   +1.22027949   -0.90220009   +2.79841593
 H   -0.94967276   +0.00797633   +1.84899123
 H   +0.92324539   -0.00572798   -0.56258136
21
 * E =  +1.156 kcal/mol ; (13) 245_298_186_184_181
 C   +0.00000000   +0.00000000   +0.00000000
 C   +0.00000000   +0.00000000   +1.32490360
 C   +1.22643999   +0.00000000   +2.17410235
 C   +1.40481978   -1.26700791   +3.00213637
 C   +0.28534256   -1.49566651   +3.99396154
 C   +0.54602028   -2.66075702   +4.89689511
 O   -0.48846435   -2.89694031   +5.70194113
 C   -0.32311806   -3.97835801   +6.60173955
 O   +1.55264265   -3.31543278   +4.91982974
 H   -1.24192631   -4.03340880   +7.17097511
 H   -0.91829210   -0.00555097   -0.56670988
 H   +0.52277963   -3.79967621   +7.25823644
 H   -0.15505986   -4.90215976   +6.05706758
 H   +0.13550498   -0.62068300   +4.62861965
 H   -0.66974177   -1.67022088   +3.50119335
 H   +2.34702124   -1.21490113   +3.54364813
 H   +1.48184395   -2.12813825   +2.34073483
 H   +1.19625132   +0.85941439   +2.84819808
 H   +2.09985997   +0.13312834   +1.53781921
 H   -0.95247194   -0.00166834   +1.84213033
 H   +0.92357842   +0.00809875   -0.56213705
21
 * E =  +1.241 kcal/mol ; (14) 109_294_296_288_178
 C   +0.00000000   +0.00000000   +0.00000000
 C   +0.00000000   +0.00000000   +1.32485517
 C   +1.22603155   +0.00000000   +2.17468066
 C   +1.44487577   +1.33166374   +2.88683794
 C   +1.75465242   +2.47625997   +1.92766898
 C   +3.04015482   +2.24290373   +1.19920822
 O   +4.09481244   +2.38359018   +2.00307106
 C   +5.35456759   +2.14618626   +1.40152719
 O   +3.14546924   +1.93547527   +0.04183515
 H   +6.09009667   +2.30572653   +2.17928779
 H   -0.92017793   +0.01614614   -0.56399676
 H   +5.51568997   +2.83298350   +0.57646138
 H   +5.41035710   +1.12920524   +1.02570636
 H   +0.97138519   +2.57236771   +1.18238124
 H   +1.83493624   +3.40798722   +2.48285617
 H   +2.25896436   +1.23595833   +3.60317533
 H   +0.55251116   +1.59154765   +3.45561739
 H   +2.09315409   -0.23862651   +1.55871334
 H   +1.14762231   -0.78597335   +2.92622099
 H   -0.94685752   +0.02729235   +1.85311893
 H   +0.92463619   -0.00598228   -0.55997307
21
 * E =  +1.260 kcal/mol ; (15) 241_184_299_319_182
 C   +0.00000000   +0.00000000   +0.00000000
 C   +0.00000000   +0.00000000   +1.32445067
 C   +1.21899352   +0.00000000   +2.18118342
 C   +1.29663493   -1.22493480   +3.08076477
 C   +2.48799553   -1.18686316   +4.02165724
 C   +3.81923408   -1.14950886   +3.33382868
 O   +3.86486214   -1.96795839   +2.28350744
 C   +5.10623339   -2.01373769   +1.60301226
 O   +4.75953457   -0.48824856   +3.68245307
 H   +4.97003024   -2.70729889   +0.78342765
 H   -0.91870470   -0.00531256   -0.56595135
 H   +5.89079655   -2.35834659   +2.26941089
 H   +5.37091638   -1.02871611   +1.23143247
 H   +2.45257306   -0.32280705   +4.67925596
 H   +2.48865604   -2.07392653   +4.65558714
 H   +1.34456213   -2.12107464   +2.46606075
 H   +0.38778495   -1.29701423   +3.67772198
 H   +1.22200891   +0.89653224   +2.80554799
 H   +2.10703194   +0.05087965   +1.55081509
 H   -0.94940023   -0.01001017   +1.84845046
 H   +0.92324394   +0.00798121   -0.56232823
21
 * E =  +1.348 kcal/mol ; (16) 122_296_181_057_180
 C   +0.00000000   +0.00000000   +0.00000000
 C   +0.00000000   +0.00000000   +1.32460224
 C   +1.21783950   +0.00000000   +2.18449931
 C   +1.28102773   +1.19115802   +3.13200496
 C   +1.37751146   +2.51541108   +2.39020858
 C   +1.45772747   +3.69343175   +3.30842418
 O   +2.49257569   +3.59983076   +4.14472445
 C   +2.64331348   +4.68063478   +5.04711741
 O   +0.70130321   +4.62658212   +3.31726289
 H   +3.51601481   +4.44978375   +5.64424007
 H   -0.91877877   -0.00112773   -0.56583649
 H   +1.76365060   +4.77484341   +5.67616355
 H   +2.78633493   +5.61004348   +4.50468721
 H   +2.27335779   +2.51508973   +1.76828390
 H   +0.52188348   +2.66671000   +1.74045484
 H   +2.13896699   +1.08638073   +3.79213778
 H   +0.39400173   +1.19554049   +3.76689905
 H   +2.10910718   -0.02046547   +1.55659976
 H   +1.23238867   -0.91333766   +2.78128483
 H   -0.94980274   +0.00615555   +1.84853168
 H   +0.92315229   -0.00341171   -0.56281740
21
 * E =  +1.356 kcal/mol ; (17) 359_181_298_318_182
 C   +0.00000000   +0.00000000   +0.00000000
 C   +0.00000000   +0.00000000   +1.32516435
 C   +1.20184738   +0.00000000   +2.20998438
 C   +2.53552578   -0.01825719   +1.49374984
 C   +3.70952419   -0.05276525   +2.45663705
 C   +3.79950193   +1.13555500   +3.36582504
 O   +3.53464697   +2.27541217   +2.72888518
 C   +3.63424244   +3.44887069   +3.51581599
 O   +4.09737697   +1.09621788   +4.52893130
 H   +3.38070285   +4.26981575   +2.85778838
 H   -0.92433018   +0.00029043   -0.55633332
 H   +4.64344760   +3.56309715   +3.89901401
 H   +2.94525594   +3.40278318   +4.35339486
 H   +3.68106275   -0.93196327   +3.09408345
 H   +4.64550682   -0.09080746   +1.89887860
 H   +2.62095426   +0.85750789   +0.85338839
 H   +2.59187528   -0.89389776   +0.84812322
 H   +1.13626498   -0.85780644   +2.88378412
 H   +1.14908000   +0.87843490   +2.85845684
 H   -0.95242779   +0.00059960   +1.84124436
 H   +0.91329057   +0.00102005   -0.57626258
21
 * E =  +1.377 kcal/mol ; (18) 120_178_180_053_179
 C   +0.00000000   +0.00000000   +0.00000000
 C   +0.00000000   +0.00000000   +1.32446614
 C   +1.22005230   +0.00000000   +2.17991165
 C   +1.29136977   +1.21756220   +3.08889588
 C   +2.51647800   +1.18156487   +3.98780151
 C   +2.62464221   +2.36441683   +4.89827585
 O   +1.50783846   +2.55464814   +5.60006985
 C   +1.53401145   +3.65039097   +6.49721733
 O   +3.59042171   +3.06955420   +5.01206111
 H   +0.56386492   +3.66474621   +6.97670644
 H   -0.91875558   +0.00558187   -0.56580980
 H   +1.70826764   +4.57649252   +5.95854102
 H   +2.32208435   +3.51926546   +7.23217994
 H   +2.48308925   +0.28827191   +4.61288724
 H   +3.43305279   +1.14385543   +3.40683966
 H   +0.39591713   +1.27407123   +3.70531857
 H   +1.30895173   +2.12006733   +2.47853985
 H   +2.10848191   -0.04783881   +1.55021233
 H   +1.22522848   -0.89990516   +2.79974669
 H   -0.94866710   +0.01032633   +1.84943647
 H   +0.92298130   -0.00812648   -0.56288284
21
 * E =  +1.404 kcal/mol ; (19) 242_069_291_317_179
 C   +0.00000000   +0.00000000   +0.00000000
 C   +0.00000000   +0.00000000   +1.32460770
 C   +1.22073710   +0.00000000   +2.18158349
 C   +1.34353303   -1.23096361   +3.07318303
 C   +1.63392734   -2.51456195   +2.31310339
 C   +0.51995204   -3.03003478   +1.45319564
 O   -0.66263586   -2.94818556   +2.06233729
 C   -1.76387048   -3.39618201   +1.29523828
 O   +0.65759598   -3.51263289   +0.36224031
 H   -2.63677314   -3.26831247   +1.92257514
 H   -0.91877147   -0.00197606   -0.56635399
 H   -1.63876015   -4.43880300   +1.02056652
 H   -1.85198207   -2.80258930   +0.38956001
 H   +2.50217874   -2.40685723   +1.66883058
 H   +1.86016818   -3.31096567   +3.02302756
 H   +0.43442804   -1.35611485   +3.65934009
 H   +2.15457925   -1.06848940   +3.78107081
 H   +1.20032331   +0.88345816   +2.82165842
 H   +2.10768317   +0.08779617   +1.55330240
 H   -0.94715355   -0.01453434   +1.85198692
 H   +0.92197787   -0.00485432   -0.56405968
21
 * E =  +1.412 kcal/mol ; (20) 120_178_180_303_180
 C   +0.00000000   +0.00000000   +0.00000000
 C   +0.00000000   +0.00000000   +1.32444070
 C   +1.21988606   +0.00000000   +2.18013034
 C   +1.29432266   +1.22026746   +3.08530408
 C   +2.51266464   +1.17705992   +3.99438959
 C   +2.61059374   +2.36192033   +4.90299522
 O   +2.62371378   +3.50752024   +4.22262956
 C   +2.71790466   +4.68089422   +5.01021506
 O   +2.67359194   +2.31796409   +6.10186353
 H   +2.71217265   +5.50805226   +4.31233178
 H   -0.91876670   +0.00471466   -0.56578239
 H   +3.63603841   +4.67549844   +5.58939873
 H   +1.87505023   +4.74878285   +5.69084480
 H   +2.50254616   +0.29258358   +4.62419012
 H   +3.41797465   +1.14708999   +3.38753610
 H   +0.39057907   +1.27644902   +3.69320705
 H   +1.32276172   +2.12440390   +2.48116022
 H   +2.10862989   -0.04779808   +1.55047825
 H   +1.22472427   -0.89959003   +2.79989627
 H   -0.94884821   +0.00905771   +1.84912460
 H   +0.92295178   -0.00756531   -0.56295591
21
 * E =  +1.519 kcal/mol ; (21) 248_305_307_296_179
 C   +0.00000000   +0.00000000   +0.00000000
 C   +0.00000000   +0.00000000   +1.32490335
 C   +1.22899252   +0.00000000   +2.17071526
 C   +1.43627618   -1.29457266   +2.95121490
 C   +0.24845303   -1.67982863   +3.82627170
 C   -0.16030862   -0.56238633   +4.73308916
 O   +0.79764774   -0.25969886   +5.60806705
 C   +0.50172986   +0.80958584   +6.48888474
 O   -1.20674148   +0.02724658   +4.68501922
 H   +1.37275404   +0.92337551   +7.12100134
 H   -0.91917165   -0.00256169   -0.56533500
 H   -0.37536755   +0.57734109   +7.08471216
 H   +0.31345421   +1.72059942   +5.92929302
 H   -0.61694354   -1.93623279   +3.22405881
 H   +0.50935232   -2.54300816   +4.43524037
 H   +2.32081629   -1.19353498   +3.57710437
 H   +1.62323711   -2.10995438   +2.25455036
 H   +1.17350523   +0.83123219   +2.87788703
 H   +2.10316845   +0.18065807   +1.54714048
 H   -0.94624374   +0.00353274   +1.85321632
 H   +0.92274580   +0.00841000   -0.56394963
21
 * E =  +1.568 kcal/mol ; (22) 000_180_180_312_181
 C   +0.00000000   +0.00000000   +0.00000000
 C   +0.00000000   +0.00000000   +1.32502756
 C   +1.20250600   +0.00000000   +2.20954649
 C   +2.53515391   +0.01032938   +1.49208747
 C   +3.69745117   +0.01086678   +2.47037393
 C   +5.04346074   +0.03083386   +1.81549320
 O   +5.14015924   -0.87608360   +0.84434815
 C   +6.39584524   -0.93497850   +0.19150280
 O   +5.95223745   +0.75521883   +2.11951050
 H   +6.30389368   -1.70906328   -0.55925075
 H   -0.92451075   +0.00013984   -0.55600194
 H   +7.18008346   -1.18094380   +0.90064192
 H   +6.62783180   +0.01983442   -0.26968761
 H   +3.65897077   +0.86834525   +3.13571065
 H   +3.65440360   -0.88580725   +3.09054750
 H   +2.59778359   +0.89130108   +0.85286667
 H   +2.61551382   -0.85684000   +0.83989256
 H   +1.14849054   -0.87300004   +2.86508537
 H   +1.13877143   +0.86188965   +2.87822852
 H   -0.95216285   +0.00010560   +1.84158634
 H   +0.91320986   -0.00045610   -0.57639475
21
 * E =  +1.933 kcal/mol ; (23) 352_288_169_300_180
 C   +0.00000000   +0.00000000   +0.00000000
 C   +0.00000000   +0.00000000   +1.32565859
 C   +1.19963851   +0.00000000   +2.21885176
 C   +2.53381932   -0.19583878   +1.52517872
 C   +2.72282908   -1.62222762   +1.02170127
 C   +3.90202826   -1.76921084   +0.11516271
 O   +3.78855401   -0.99133055   -0.96357660
 C   +4.86181091   -1.06852440   -1.88422718
 O   +4.84630936   -2.48866670   +0.29802591
 H   +4.61618337   -0.38361069   -2.68548055
 H   -0.92579340   +0.02197471   -0.55362324
 H   +4.96290254   -2.08037605   -2.26419824
 H   +5.79261266   -0.77943154   -1.40631229
 H   +2.86099517   -2.31095741   +1.84921318
 H   +1.83832448   -1.93300707   +0.46751521
 H   +3.33805688   +0.04384851   +2.21876742
 H   +2.62295991   +0.50104630   +0.69400863
 H   +1.06606866   -0.76720509   +2.98492712
 H   +1.21139586   +0.94594283   +2.76383427
 H   -0.95379995   +0.01892728   +1.83901540
 H   +0.91190173   -0.02191119   -0.58033204
21
 * E =  +2.087 kcal/mol ; (24) 246_298_185_308_181
 C   +0.00000000   +0.00000000   +0.00000000
 C   +0.00000000   +0.00000000   +1.32485138
 C   +1.22720153   +0.00000000   +2.17258107
 C   +1.41036533   -1.27272938   +2.99185329
 C   +0.28488866   -1.50697964   +3.98797421
 C   +0.51664142   -2.68899942   +4.87558515
 O   +0.81464593   -3.78370599   +4.17725831
 C   +1.03408349   -4.95327478   +4.94533978
 O   +0.44115335   -2.68440752   +6.07460872
 H   +1.26091848   -5.73698338   +4.23425790
 H   -0.91843412   -0.00399031   -0.56641628
 H   +0.14637723   -5.20192772   +5.51855462
 H   +1.86321463   -4.80647219   +5.63037353
 H   +0.14446594   -0.64706831   +4.63688146
 H   -0.65134633   -1.68119627   +3.45786151
 H   +2.35521363   -1.20617655   +3.53078011
 H   +1.48504648   -2.13013096   +2.32670957
 H   +1.19567046   +0.85417776   +2.85251281
 H   +2.09988227   +0.13835731   +1.53615117
 H   -0.95203556   +0.00097492   +1.84243618
 H   +0.92337529   +0.00738154   -0.56249242
21
 * E =  +2.111 kcal/mol ; (25) 244_297_184_053_179
 C   +0.00000000   +0.00000000   +0.00000000
 C   +0.00000000   +0.00000000   +1.32478116
 C   +1.22795571   +0.00000000   +2.17149433
 C   +1.39410280   -1.25384192   +3.02246781
 C   +0.28157471   -1.43375156   +4.04421998
 C   +0.48604343   -2.61462748   +4.94145158
 O   +1.68226238   -2.59273256   +5.52869473
 C   +1.94669848   -3.67167098   +6.40734278
 O   -0.31650951   -3.48649799   +5.13772872
 H   +2.94458526   -3.50410896   +6.79139490
 H   -0.91851602   -0.00514587   -0.56621210
 H   +1.89558232   -4.61560343   +5.87386746
 H   +1.22306583   -3.68721831   +7.21637324
 H   +0.22482724   -0.54750826   +4.67824451
 H   -0.68533732   -1.56789592   +3.57086680
 H   +2.34586950   -1.20516351   +3.54674592
 H   +1.43231095   -2.12639196   +2.37075870
 H   +1.21119637   +0.86976749   +2.83253136
 H   +2.10144458   +0.11106257   +1.53081396
 H   -0.95171630   -0.00135879   +1.84266879
 H   +0.92332300   +0.00743407   -0.56262482
21
 * E =  +2.179 kcal/mol ; (26) 009_071_182_296_179
 C   +0.00000000   +0.00000000   +0.00000000
 C   +0.00000000   +0.00000000   +1.32504833
 C   +1.19568294   +0.00000000   +2.22311327
 C   +2.54057987   +0.21551427   +1.55566891
 C   +2.72853206   +1.64396252   +1.05743990
 C   +4.04186972   +1.82878416   +0.36700068
 O   +5.06678971   +1.65115899   +1.20154507
 C   +6.35216872   +1.78920442   +0.62361551
 O   +4.19125994   +2.09067648   -0.79600144
 H   +7.05854928   +1.61861102   +1.42569458
 H   -0.92501504   -0.02433631   -0.55458767
 H   +6.47665128   +2.78519391   +0.21017738
 H   +6.49143080   +1.06128916   -0.16961463
 H   +1.94939349   +1.92714387   +0.35875878
 H   +2.68982998   +2.32508658   +1.90686420
 H   +2.65778829   -0.48408992   +0.72776927
 H   +3.33296762   -0.01104959   +2.26546883
 H   +1.21039347   -0.95232081   +2.75719673
 H   +1.05073123   +0.75668286   +2.99752827
 H   -0.95451593   -0.02376532   +1.83696257
 H   +0.91051777   +0.02391724   -0.58099342
21
 * E =  +2.204 kcal/mol ; (27) 010_071_064_034_178
 C   +0.00000000   +0.00000000   +0.00000000
 C   +0.00000000   +0.00000000   +1.32505826
 C   +1.19394186   +0.00000000   +2.22507430
 C   +2.53775182   +0.24317536   +1.56299751
 C   +2.72256527   +1.67038305   +1.07520675
 C   +2.73969093   +2.70826971   +2.15738947
 O   +3.29610209   +2.26386569   +3.28474370
 C   +3.38462067   +3.21371898   +4.33157111
 O   +2.33476770   +3.83261991   +2.03699037
 H   +3.84688279   +2.69735748   +5.16293027
 H   -0.92430121   -0.02171577   -0.55577222
 H   +2.39624754   +3.57051140   +4.60395777
 H   +3.98903121   +4.06119275   +4.02363504
 H   +3.67424345   +1.76395214   +0.55061418
 H   +1.94634762   +1.96842278   +0.37747837
 H   +2.66573781   -0.43802728   +0.72281341
 H   +3.32720542   +0.01077318   +2.27320351
 H   +1.21825267   -0.95897614   +2.74670253
 H   +1.04006237   +0.74125044   +3.01253339
 H   -0.95568966   -0.02147425   +1.83477974
 H   +0.91126840   +0.02080047   -0.57990890
21
 * E =  +2.279 kcal/mol ; (28) 249_298_074_050_181
 C   +0.00000000   +0.00000000   +0.00000000
 C   +0.00000000   +0.00000000   +1.32508332
 C   +1.23108190   +0.00000000   +2.16944745
 C   +1.47301688   -1.29308952   +2.94277464
 C   +0.38628361   -1.64325886   +3.95003861
 C   -0.89343630   -2.14065899   +3.34959726
 O   -0.68062515   -3.11011062   +2.46420614
 C   -1.83855236   -3.62059917   +1.82987647
 O   -1.99338270   -1.74579355   +3.63208563
 H   -1.49271402   -4.39919500   +1.16250871
 H   -0.91927957   +0.00417865   -0.56534763
 H   -2.33635278   -2.83410209   +1.27074263
 H   -2.52898886   -4.02278886   +2.56449761
 H   +0.74783202   -2.43803113   +4.60250864
 H   +0.13507651   -0.79414905   +4.57965153
 H   +2.41339487   -1.19435331   +3.48263323
 H   +1.59179430   -2.11978266   +2.24543513
 H   +1.17355990   +0.82564037   +2.88194147
 H   +2.09636475   +0.19198166   +1.53633049
 H   -0.95053926   +0.01242662   +1.84488548
 H   +0.92262726   +0.00160659   -0.56404391
21
 * E =  +2.365 kcal/mol ; (29) 243_302_084_218_182
 C   +0.00000000   +0.00000000   +0.00000000
 C   +0.00000000   +0.00000000   +1.32429719
 C   +1.22456765   +0.00000000   +2.17562552
 C   +1.38084080   -1.23694766   +3.05448383
 C   +0.20725182   -1.47228140   +3.99252994
 C   -0.91872238   -2.21566349   +3.33906430
 O   -2.11147474   -1.76152399   +3.72099881
 C   -3.22297626   -2.45435018   +3.18021052
 O   -0.78482728   -3.13768169   +2.58165987
 H   -4.10103180   -1.96746269   +3.58420328
 H   -0.91827916   +0.00020116   -0.56650163
 H   -3.19629829   -3.49949215   +3.47220143
 H   -3.21492239   -2.39352703   +2.09638743
 H   +0.52129581   -2.09777195   +4.82823192
 H   -0.16936328   -0.54458181   +4.41730329
 H   +2.28777642   -1.12447723   +3.64517008
 H   +1.50745742   -2.12215418   +2.43408139
 H   +1.20408956   +0.88074057   +2.82213575
 H   +2.10350987   +0.09871288   +1.54029254
 H   -0.95205695   +0.01116705   +1.84409596
 H   +0.92328587   -0.00395435   -0.56240402
21
 * E =  +7.661 kcal/mol ; (30) 119_297_290_172_357
 C   +0.00000000   +0.00000000   +0.00000000
 C   +0.00000000   +0.00000000   +1.32568122
 C   +1.21949819   +0.00000000   +2.18277317
 C   +1.30470234   +1.22498382   +3.08735293
 C   +1.40451098   +2.52568024   +2.31759517
 C   +2.73312259   +2.67944317   +1.62748869
 O   +2.88191842   +3.70551081   +0.78070068
 C   +1.81643167   +4.58351556   +0.49947408
 O   +3.66257127   +1.94834752   +1.81415922
 H   +2.23213512   +5.35580041   -0.13572209
 H   -0.91863639   -0.00288637   -0.56677206
 H   +1.42167109   +5.04240365   +1.40274211
 H   +1.01539628   +4.07786911   -0.03488759
 H   +0.60182756   +2.59706619   +1.58441018
 H   +1.28194999   +3.37900852   +2.98668189
 H   +2.17196002   +1.12816049   +3.73568582
 H   +0.42270264   +1.26727975   +3.72632572
 H   +2.11391306   -0.05760270   +1.56605099
 H   +1.21208753   -0.88943072   +2.81413574
 H   -0.95153547   +0.00841990   +1.84748967
 H   +0.92443279   -0.01311382   -0.56071143
21
 * E =  +8.041 kcal/mol ; (31) 121_296_179_179_000
 C   +0.00000000   +0.00000000   +0.00000000
 C   +0.00000000   +0.00000000   +1.32512438
 C   +1.21634794   +0.00000000   +2.18747026
 C   +1.28093532   +1.20095159   +3.12186932
 C   +1.40206648   +2.50877821   +2.37214772
 C   +1.43779126   +3.68878793   +3.30153977
 O   +1.56476728   +4.90736707   +2.75913552
 C   +1.66675248   +5.07981031   +1.36497867
 O   +1.35670756   +3.59272716   +4.49146092
 H   +1.72653542   +6.14901641   +1.20432581
 H   -0.91858457   -0.00334003   -0.56636586
 H   +0.79367580   +4.69146980   +0.84595876
 H   +2.56484799   +4.61198473   +0.96790973
 H   +2.30251316   +2.51488405   +1.75526409
 H   +0.57153897   +2.62821059   +1.67512077
 H   +2.12373836   +1.09812210   +3.80134622
 H   +0.39410662   +1.23415840   +3.75257513
 H   +2.10825067   -0.03793842   +1.56080431
 H   +1.22103355   -0.90666922   +2.79389594
 H   -0.95015150   +0.00606596   +1.84856600
 H   +0.92349872   -0.00865159   -0.56249593
21
 * E =  +8.257 kcal/mol ; (32) 119_178_288_173_358
 C   +0.00000000   +0.00000000   +0.00000000
 C   +0.00000000   +0.00000000   +1.32469422
 C   +1.21782086   +0.00000000   +2.18217601
 C   +1.29498062   +1.23243446   +3.07196930
 C   +2.49818902   +1.21866635   +3.99193622
 C   +2.36485858   +0.20446435   +5.09703054
 O   +3.42662388   -0.00356344   +5.88547031
 C   +4.64507185   +0.66971908   +5.66925867
 O   +1.35681385   -0.40184694   +5.31665387
 H   +5.28621515   +0.38994737   +6.49583281
 H   -0.91865337   +0.00119661   -0.56606595
 H   +4.51668205   +1.74940105   +5.67030479
 H   +5.11277571   +0.35754309   +4.73813580
 H   +3.41247381   +1.02989965   +3.42870275
 H   +2.63376725   +2.19508720   +4.46006773
 H   +0.39201898   +1.30118192   +3.67560469
 H   +1.33693127   +2.12376670   +2.44812454
 H   +2.10688938   -0.05815837   +1.55261798
 H   +1.20758264   -0.88486839   +2.81901831
 H   -0.94783214   +0.00544436   +1.85074401
 H   +0.92306175   -0.00764791   -0.56309696
21
 * E =  +8.519 kcal/mol ; (33) 119_175_070_187_002
 C   +0.00000000   +0.00000000   +0.00000000
 C   +0.00000000   +0.00000000   +1.32445842
 C   +1.22188885   +0.00000000   +2.17763424
 C   +1.30564379   +1.23570179   +3.06228586
 C   +2.48295177   +1.20293198   +4.01479383
 C   +3.80254828   +1.36160714   +3.30720001
 O   +4.91994198   +1.20194371   +4.02797865
 C   +4.87068859   +0.85744377   +5.39289850
 O   +3.90023944   +1.64313393   +2.14853747
 H   +5.89614172   +0.88344305   +5.73988087
 H   -0.91915545   +0.00677805   -0.56545147
 H   +4.47464633   -0.14537086   +5.53690777
 H   +4.28405497   +1.56879263   +5.96922314
 H   +2.40659413   +2.00899104   +4.74654506
 H   +2.48605200   +0.27736188   +4.59131072
 H   +0.39046310   +1.32711838   +3.64707656
 H   +1.37739533   +2.12052333   +2.43383717
 H   +2.10978570   -0.05873729   +1.55199863
 H   +1.21145933   -0.88816235   +2.81553844
 H   -0.94949273   +0.01166758   +1.84883820
 H   +0.92374812   -0.00496188   -0.56107786
21
 * E =  +8.578 kcal/mol ; (34) 241_056_273_166_356
 C   +0.00000000   +0.00000000   +0.00000000
 C   +0.00000000   +0.00000000   +1.32569529
 C   +1.23009691   +0.00000000   +2.16724526
 C   +1.34946911   -1.22868673   +3.06500726
 C   +1.28672910   -2.53026839   +2.28751000
 C   -0.12633358   -3.01252444   +2.07816188
 O   -0.33249104   -3.97766040   +1.17524765
 C   +0.71440446   -4.46960662   +0.37167759
 O   -1.05844965   -2.61318803   +2.71433031
 H   +0.29308649   -5.29850675   -0.18361568
 H   -0.91913147   -0.01078833   -0.56523650
 H   +1.54817334   -4.83144862   +0.96875801
 H   +1.06303540   -3.71471126   -0.32941338
 H   +1.79618435   -2.42781599   +1.33051309
 H   +1.80571676   -3.32647953   +2.82476229
 H   +0.55385338   -1.22967831   +3.80648300
 H   +2.29434686   -1.17464123   +3.60184711
 H   +1.23953460   +0.88921725   +2.79897961
 H   +2.10620440   +0.06402196   +1.52002436
 H   -0.94397234   -0.03293113   +1.85515600
 H   +0.92358976   +0.02306979   -0.56305691
21
 * E =  +8.633 kcal/mol ; (35) 121_178_181_182_001
 C   +0.00000000   +0.00000000   +0.00000000
 C   +0.00000000   +0.00000000   +1.32430289
 C   +1.22013530   +0.00000000   +2.17997513
 C   +1.27834099   +1.20409836   +3.10686875
 C   +2.49840800   +1.17484953   +4.00009956
 C   +2.53923371   +2.34810841   +4.94004605
 O   +3.59172012   +2.45329933   +5.76266768
 C   +4.63740717   +1.51038268   +5.73941661
 O   +1.68179106   +3.18022129   +4.99017111
 H   +5.32770424   +1.81734751   +6.51519245
 H   -0.91880250   +0.00608160   -0.56561022
 H   +5.15719702   +1.51125679   +4.78394803
 H   +4.28106518   +0.50694696   +5.96046523
 H   +2.52089231   +0.25589439   +4.58907062
 H   +3.41239811   +1.16446864   +3.40430709
 H   +0.38486800   +1.24616809   +3.72721067
 H   +1.27856388   +2.12291646   +2.52446739
 H   +2.10760078   -0.03079320   +1.54685518
 H   +1.23380391   -0.91193278   +2.78253759
 H   -0.94826819   +0.01079302   +1.84968548
 H   +0.92283079   -0.00640178   -0.56326696
21
 * E =  +8.667 kcal/mol ; (36) 359_183_289_173_358
 C   +0.00000000   +0.00000000   +0.00000000
 C   +0.00000000   +0.00000000   +1.32515763
 C   +1.19920040   +0.00000000   +2.21305668
 C   +2.53173524   -0.03195386   +1.49485197
 C   +3.70865281   -0.10479230   +2.44563733
 C   +3.92324968   +1.17755482   +3.20490256
 O   +4.85200471   +1.18291062   +4.16979029
 C   +5.58172894   +0.02261465   +4.49455944
 O   +3.32573351   +2.18839736   +2.97563906
 H   +6.30821590   +0.33041964   +5.23623904
 H   -0.92435940   +0.00567232   -0.55624126
 H   +6.10635083   -0.38062632   +3.63173540
 H   +4.94134310   -0.74418283   +4.92479935
 H   +3.58541160   -0.92917402   +3.14868345
 H   +4.62867314   -0.31714214   +1.89857536
 H   +2.63234613   +0.85610274   +0.87399964
 H   +2.56846070   -0.89747963   +0.83413225
 H   +1.12604526   -0.85948945   +2.88553648
 H   +1.15745402   +0.88265115   +2.85214960
 H   -0.95289014   +0.00617917   +1.84033667
 H   +0.91280137   +0.00189238   -0.57701923
21
 * E =  +8.701 kcal/mol ; (37) 000_180_180_180_000
 C   +0.00000000   +0.00000000   +0.00000000
 C   +0.00000000   +0.00000000   +1.32493996
 C   +1.20531212   +0.00000000   +2.20631076
 C   +2.53310040   +0.00000000   +1.48052882
 C   +3.70216058   +0.00000000   +2.43971143
 C   +5.02196684   +0.00000000   +1.71863644
 O   +6.13836737   +0.00000000   +2.45961122
 C   +6.08295616   +0.00000000   +3.86670946
 O   +5.11981605   -0.00000201   +0.52671254
 H   +7.11260429   -0.00000145   +4.20189936
 H   -0.92498271   -0.00000000   -0.55527755
 H   +5.58666407   -0.88882943   +4.24959057
 H   +5.58666656   +0.88883081   +4.24959060
 H   +3.66181985   +0.86953313   +3.09803599
 H   +3.66181976   -0.86953316   +3.09803598
 H   +2.60814355   +0.86876550   +0.82941184
 H   +2.60814364   -0.86876544   +0.82941179
 H   +1.14637205   -0.86769345   +2.86882473
 H   +1.14637206   +0.86769345   +2.86882474
 H   -0.95127008   +0.00000000   +1.84313396
 H   +0.91319145   +0.00000000   -0.57642525
21
 * E =  +8.932 kcal/mol ; (38) 012_070_182_181_000
 C   +0.00000000   +0.00000000   +0.00000000
 C   +0.00000000   +0.00000000   +1.32545261
 C   +1.19831696   +0.00000000   +2.22062805
 C   +2.53317638   +0.27272140   +1.55440764
 C   +2.67084676   +1.70712745   +1.08901467
 C   +3.97709560   +1.94863218   +0.38700128
 O   +4.23036068   +3.18943991   -0.05081957
 C   +3.30458455   +4.23406398   +0.13726504
 O   +4.79312105   +1.09357020   +0.20096417
 H   +3.74907989   +5.10757022   -0.32316534
 H   -0.92397638   -0.02844990   -0.55619991
 H   +3.13747620   +4.43728812   +1.19263414
 H   +2.35471757   +4.02248350   -0.34811279
 H   +1.85288227   +1.98038882   +0.42224257
 H   +2.59588831   +2.38919285   +1.93769435
 H   +2.68772171   -0.39869274   +0.71237512
 H   +3.33938433   +0.05336595   +2.25038321
 H   +1.23876021   -0.96939350   +2.72129933
 H   +1.03267498   +0.72366323   +3.02219532
 H   -0.95493935   -0.02688734   +1.83648783
 H   +0.91273344   +0.01476924   -0.57835027
21
 * E =  +9.042 kcal/mol ; (39) 248_298_291_173_359
 C   +0.00000000   +0.00000000   +0.00000000
 C   +0.00000000   +0.00000000   +1.32521768
 C   +1.22372063   +0.00000000   +2.17759884
 C   +1.42697792   -1.29183912   +2.96397915
 C   +0.31899684   -1.61057568   +3.94847012
 C   +0.28098263   -0.65069997   +5.10731448
 O   -0.74453103   -0.74429001   +5.96338428
 C   -1.77415624   -1.68740697   +5.77645585
 O   +1.12767419   +0.16991818   +5.31192134
 H   -2.40672385   -1.60947911   +6.65189680
 H   -0.91780910   +0.00088154   -0.56764794
 H   -1.38690431   -2.70111338   +5.70835328
 H   -2.36613291   -1.46183955   +4.89215142
 H   -0.65215822   -1.63602695   +3.45594282
 H   +0.46195171   -2.61100552   +4.36060676
 H   +2.36500481   -1.22271427   +3.51009712
 H   +1.51355081   -2.12278503   +2.26550899
 H   +1.18726066   +0.83121070   +2.88105942
 H   +2.09567898   +0.15948037   +1.54536498
 H   -0.95573009   +0.00709992   +1.83717238
 H   +0.92395786   +0.00758104   -0.56157370
21
 * E =  +9.239 kcal/mol ; (40) 247_298_185_182_001
 C   +0.00000000   +0.00000000   +0.00000000
 C   +0.00000000   +0.00000000   +1.32484551
 C   +1.22614912   +0.00000000   +2.17474739
 C   +1.42013044   -1.27706064   +2.98338049
 C   +0.30022998   -1.53956124   +3.96698043
 C   +0.58866482   -2.73240772   +4.83667728
 O   -0.34334347   -3.09395201   +5.72893124
 C   -1.56459261   -2.40095375   +5.83471027
 O   +1.60268383   -3.36331820   +4.77380572
 H   -2.10354662   -2.87644926   +6.64465651
 H   -0.91805393   -0.00618327   -0.56704472
 H   -2.15241859   -2.48362244   +4.92323171
 H   -1.41395641   -1.35186459   +6.07856708
 H   +0.14267389   -0.67125691   +4.61051619
 H   -0.64662395   -1.70358844   +3.45227380
 H   +2.35802330   -1.22253806   +3.53113498
 H   +1.51137386   -2.12848269   +2.31214109
 H   +1.18856436   +0.85026579   +2.86005651
 H   +2.09823209   +0.15018682   +1.54059800
 H   -0.95333355   -0.00124800   +1.84097220
 H   +0.92367440   +0.00867227   -0.56182308
21
 * E =  +9.760 kcal/mol ; (41) 108_294_295_272_353
 C   +0.00000000   +0.00000000   +0.00000000
 C   +0.00000000   +0.00000000   +1.32515541
 C   +1.23114850   +0.00000000   +2.16811765
 C   +1.46673742   +1.34229785   +2.85466035
 C   +1.77332918   +2.47470804   +1.87279820
 C   +3.07116655   +2.23234837   +1.15596653
 O   +4.20910823   +2.67743895   +1.70658204
 C   +4.20576144   +3.48714376   +2.85941568
 O   +3.13761753   +1.60826885   +0.13525500
 H   +5.24652130   +3.61887009   +3.12874596
 H   -0.92079243   +0.01184496   -0.56337031
 H   +3.68283521   +3.01496214   +3.68728961
 H   +3.76765529   +4.46186148   +2.65654907
 H   +1.00334756   +2.50044731   +1.10741948
 H   +1.77025118   +3.42971542   +2.39040713
 H   +2.27784016   +1.23845665   +3.57562061
 H   +0.58051489   +1.62108560   +3.42441637
 H   +2.09195990   -0.25712501   +1.55407075
 H   +1.14502562   -0.76687378   +2.93820188
 H   -0.94592781   +0.02459742   +1.85537928
 H   +0.92685541   -0.00326520   -0.55614224
21
 * E =  +9.776 kcal/mol ; (42) 118_292_175_273_351
 C   +0.00000000   +0.00000000   +0.00000000
 C   +0.00000000   +0.00000000   +1.32500084
 C   +1.21622191   +0.00000000   +2.18731960
 C   +1.31528809   +1.24658195   +3.05784361
 C   +1.57304225   +2.50527990   +2.23484118
 C   +1.54485838   +3.72148728   +3.11545273
 O   +0.36497790   +4.31449214   +3.34731388
 C   -0.79851903   +3.93841776   +2.64674259
 O   +2.52015466   +4.14678980   +3.66349970
 H   -1.60708110   +4.50141187   +3.09658480
 H   -0.91864044   +0.00051891   -0.56623610
 H   -1.00918602   +2.87577151   +2.74268106
 H   -0.72663799   +4.20090110   +1.59372747
 H   +2.56838581   +2.45769503   +1.80359449
 H   +0.85729901   +2.57119308   +1.41926657
 H   +2.12031545   +1.13241528   +3.78053514
 H   +0.39678220   +1.35431109   +3.63732600
 H   +2.10862634   -0.08973850   +1.56793490
 H   +1.19313633   -0.87504235   +2.83784098
 H   -0.95063131   +0.00751744   +1.84830709
 H   +0.92328859   -0.01211900   -0.56236030
21
 * E = +10.086 kcal/mol ; (43) 122_297_177_091_005
 C   +0.00000000   +0.00000000   +0.00000000
 C   +0.00000000   +0.00000000   +1.32455312
 C   +1.21941155   +0.00000000   +2.18206082
 C   +1.27352852   +1.18701717   +3.13522661
 C   +1.34036502   +2.52133239   +2.39981176
 C   +1.32544634   +3.66110200   +3.37926343
 O   +2.49111531   +4.14305507   +3.83280154
 C   +3.72506600   +3.67701093   +3.33942964
 O   +0.30821144   +4.12264475   +3.80883274
 H   +4.48384519   +4.15155997   +3.94951595
 H   -0.91897429   -0.00267980   -0.56538133
 H   +3.87298588   +3.96864729   +2.30203197
 H   +3.81940789   +2.59787109   +3.43488258
 H   +2.20966027   +2.54582039   +1.74675575
 H   +0.45734940   +2.63581669   +1.77895655
 H   +2.13346055   +1.07603081   +3.79582491
 H   +0.39156716   +1.18872389   +3.77473156
 H   +2.10957620   -0.01433126   +1.55231263
 H   +1.23891280   -0.91520434   +2.77572728
 H   -0.94867319   +0.00586260   +1.84998682
 H   +0.92289566   -0.00379263   -0.56332292
21
 * E = +10.136 kcal/mol ; (44) 252_304_304_272_353
 C   +0.00000000   +0.00000000   +0.00000000
 C   +0.00000000   +0.00000000   +1.32511824
 C   +1.23107754   +0.00000000   +2.16810153
 C   +1.48554596   -1.32980646   +2.87184328
 C   +0.32726873   -1.81768743   +3.74417222
 C   -0.06064789   -0.79106637   +4.77098395
 O   +0.56132205   -0.78760491   +5.95640929
 C   +1.45926732   -1.81022813   +6.32227989
 O   -0.87174038   +0.06169152   +4.54617939
 H   +1.87272891   -1.50998372   +7.27715223
 H   -0.91933859   -0.00078068   -0.56517591
 H   +2.26818791   -1.91735679   +5.60428110
 H   +0.94583082   -2.76138961   +6.44327916
 H   -0.55161766   -1.97348057   +3.12634684
 H   +0.58535112   -2.77044970   +4.19804184
 H   +2.39288405   -1.24302401   +3.46998460
 H   +1.67662495   -2.09700925   +2.12324262
 H   +1.14977760   +0.79308005   +2.91199746
 H   +2.09743491   +0.22974681   +1.54944380
 H   -0.94178728   +0.00746705   +1.85970670
 H   +0.92227247   +0.01017605   -0.56496930
21
 * E = +10.149 kcal/mol ; (45) 120_178_183_270_354
 C   +0.00000000   +0.00000000   +0.00000000
 C   +0.00000000   +0.00000000   +1.32440248
 C   +1.22133527   +0.00000000   +2.17818877
 C   +1.29135090   +1.21698709   +3.08773704
 C   +2.51738785   +1.18282624   +3.99397425
 C   +2.51454849   +2.35670677   +4.93390733
 O   +3.10950873   +3.49402574   +4.55135507
 C   +3.83362082   +3.58045326   +3.34599209
 O   +1.95605242   +2.32679065   +5.99187096
 H   +4.10770941   +4.62306375   +3.24209655
 H   -0.91882014   +0.00440584   -0.56553385
 H   +3.23290782   +3.28619064   +2.48890877
 H   +4.73954292   +2.97965534   +3.38497735
 H   +2.48017908   +0.29539042   +4.61884558
 H   +3.42557755   +1.13472008   +3.39771201
 H   +0.39999694   +1.26512376   +3.71190363
 H   +1.29037041   +2.12106391   +2.47856652
 H   +2.10910146   -0.04570400   +1.54687473
 H   +1.22941133   -0.89880477   +2.79868174
 H   -0.94785410   +0.00910723   +1.85036086
 H   +0.92273645   -0.00935033   -0.56342675
21
 * E = +10.303 kcal/mol ; (46) 240_184_298_274_351
 C   +0.00000000   +0.00000000   +0.00000000
 C   +0.00000000   +0.00000000   +1.32458798
 C   +1.22213012   +0.00000000   +2.17743855
 C   +1.28386206   -1.22534611   +3.07799530
 C   +2.47501801   -1.21511491   +4.03603705
 C   +3.78118136   -1.21169791   +3.29087228
 O   +4.30781887   -2.38183179   +2.90566601
 C   +3.76847794   -3.61277720   +3.32950241
 O   +4.34264547   -0.20056082   +2.98128106
 H   +4.33299048   -4.37564887   +2.80770005
 H   -0.91896374   -0.00211343   -0.56565530
 H   +2.71794731   -3.70973867   +3.06858081
 H   +3.89586228   -3.75074885   +4.40092842
 H   +2.46037563   -0.30081286   +4.62191364
 H   +2.40731187   -2.05446892   +4.72301288
 H   +1.29872552   -2.12192773   +2.45818830
 H   +0.37429665   -1.28279026   +3.67551630
 H   +1.23066478   +0.89367352   +2.80482376
 H   +2.11160282   +0.05732458   +1.55324538
 H   -0.94969831   -0.00708444   +1.84847278
 H   +0.92339417   +0.00903790   -0.56193952
21
 * E = +10.340 kcal/mol ; (47) 120_179_177_089_006
 C   +0.00000000   +0.00000000   +0.00000000
 C   +0.00000000   +0.00000000   +1.32422654
 C   +1.22159705   +0.00000000   +2.17792064
 C   +1.30085733   +1.22332545   +3.07830164
 C   +2.53619833   +1.19359186   +3.97221383
 C   +2.62459074   +2.44620411   +4.79953039
 O   +2.02330062   +2.47457225   +5.99664565
 C   +1.42835941   +1.32545460   +6.55288995
 O   +3.16928414   +3.43620321   +4.40608249
 H   +0.94031097   +1.65738645   +7.46098691
 H   -0.91892068   +0.00570394   -0.56537396
 H   +2.17545161   +0.57684807   +6.80713902
 H   +0.68353586   +0.89146843   +5.89027749
 H   +2.53614803   +0.29486058   +4.58474760
 H   +3.42889667   +1.17637643   +3.35418967
 H   +0.39631215   +1.28752061   +3.68515487
 H   +1.32766694   +2.12527770   +2.46983564
 H   +2.10939966   -0.04980753   +1.54783021
 H   +1.22704120   -0.89792650   +2.80064987
 H   -0.94870878   +0.00962747   +1.84914887
 H   +0.92273109   -0.00659073   -0.56311807
21
 * E = +10.354 kcal/mol ; (48) 119_179_296_274_351
 C   +0.00000000   +0.00000000   +0.00000000
 C   +0.00000000   +0.00000000   +1.32452757
 C   +1.21927834   +0.00000000   +2.18087983
 C   +1.29460535   +1.24044533   +3.05955097
 C   +2.51682985   +1.25845909   +3.97828768
 C   +2.47466349   +0.12870930   +4.96908510
 O   +1.80557502   +0.30302254   +6.11712660
 C   +1.30620149   +1.56379415   +6.49989857
 O   +2.96714363   -0.94036174   +4.74974649
 H   +0.75286122   +1.39463981   +7.41541377
 H   -0.91869878   -0.00021126   -0.56594218
 H   +0.63568891   +1.98157871   +5.75339442
 H   +2.11440596   +2.26359469   +6.70053672
 H   +3.41645399   +1.11132738   +3.38816872
 H   +2.59538389   +2.22263442   +4.47331311
 H   +0.37977640   +1.32214289   +3.64859606
 H   +1.32990947   +2.12563873   +2.42660134
 H   +2.11002327   -0.05940711   +1.55617251
 H   +1.22581124   -0.89015502   +2.81076559
 H   -0.94995867   +0.00459643   +1.84773721
 H   +0.92316857   -0.00823022   -0.56251937
21
 * E = +10.410 kcal/mol ; (49) 000_182_298_274_352
 C   +0.00000000   +0.00000000   +0.00000000
 C   +0.00000000   +0.00000000   +1.32543111
 C   +1.19657082   +0.00000000   +2.21657784
 C   +2.52787956   +0.00278102   +1.49565871
 C   +3.72487040   -0.04851955   +2.44525342
 C   +3.76602181   +1.15256171   +3.34918931
 O   +4.37243536   +2.26597070   +2.91702046
 C   +5.11473696   +2.28877598   +1.71944499
 O   +3.23158775   +1.16985718   +4.42066925
 H   +5.41338407   +3.32028783   +1.57906301
 H   -0.92432977   +0.00253300   -0.55617082
 H   +4.52138794   +1.97327224   +0.86531624
 H   +6.00654982   +1.67080864   +1.79665274
 H   +3.63429428   -0.91254041   +3.09682969
 H   +4.64510093   -0.15355478   +1.87693602
 H   +2.59073855   +0.88307736   +0.85481972
 H   +2.58684683   -0.86194234   +0.83572640
 H   +1.14267293   -0.87072171   +2.87388662
 H   +1.13287299   +0.85602619   +2.88960283
 H   -0.95294431   +0.00260243   +1.84010660
 H   +0.91188752   -0.00188216   -0.57886180
21
 * E = +10.601 kcal/mol ; (50) 248_297_184_271_353
 C   +0.00000000   +0.00000000   +0.00000000
 C   +0.00000000   +0.00000000   +1.32506453
 C   +1.22798102   +0.00000000   +2.17235486
 C   +1.43965881   -1.29708524   +2.94427433
 C   +0.32845935   -1.58822100   +3.94901895
 C   +0.64995843   -2.82962823   +4.73400551
 O   +0.24900146   -4.01514067   +4.25728352
 C   -0.58159835   -4.11324302   +3.12269575
 O   +1.29663147   -2.80180722   +5.74069602
 H   -0.65140216   -5.17097413   +2.90073573
 H   -0.91840950   -0.00475184   -0.56649859
 H   -0.16159912   -3.59735097   +2.26290453
 H   -1.57809890   -3.72961682   +3.33023754
 H   +0.27101695   -0.77809771   +4.67036511
 H   -0.63322093   -1.66442737   +3.44899917
 H   +2.38210059   -1.24307227   +3.48609318
 H   +1.53165321   -2.12024551   +2.23539775
 H   +1.17977151   +0.82695425   +2.88345010
 H   +2.09744959   +0.17791243   +1.54160341
 H   -0.95221495   +0.00053992   +1.84246542
 H   +0.92322823   +0.01251350   -0.56262561
21
 * E = +11.086 kcal/mol ; (51) 245_298_183_088_007
 C   +0.00000000   +0.00000000   +0.00000000
 C   +0.00000000   +0.00000000   +1.32452110
 C   +1.22886341   +0.00000000   +2.16988828
 C   +1.39812506   -1.25992274   +3.01086218
 C   +0.26369220   -1.47300610   +4.00997469
 C   +0.52972323   -2.69153103   +4.84964920
 O   +1.24191139   -2.55514678   +5.97706293
 C   +1.61816679   -1.28897759   +6.46592725
 O   +0.17568450   -3.78651913   +4.52267443
 H   +2.25548454   -1.48123297   +7.32027484
 H   -0.91871349   -0.00524717   -0.56570440
 H   +0.75207050   -0.71801762   +6.79325368
 H   +2.17784732   -0.71750788   +5.72939046
 H   +0.12376701   -0.58029066   +4.61616551
 H   -0.66336291   -1.67020747   +3.48190780
 H   +2.35028323   -1.20239733   +3.53893112
 H   +1.45481791   -2.13103021   +2.36084229
 H   +1.20947139   +0.86647183   +2.83531318
 H   +2.10213913   +0.11643005   +1.52994797
 H   -0.95112824   -0.00056337   +1.84337347
 H   +0.92296453   +0.00571975   -0.56304262
21
 * E = +11.801 kcal/mol ; (52) 247_273_053_084_008
 C   +0.00000000   +0.00000000   +0.00000000
 C   +0.00000000   +0.00000000   +1.32528159
 C   +1.24109075   +0.00000000   +2.15664424
 C   +1.45911126   -1.28937471   +2.95168167
 C   +0.77063146   -1.33079106   +4.31755298
 C   -0.70072868   -1.03102531   +4.25501051
 O   -1.55600837   -2.01936733   +3.96799498
 C   -1.13289462   -3.36152013   +3.88595688
 O   -1.13327471   +0.07566986   +4.40888220
 H   -2.00076191   -3.92369190   +3.56429006
 H   -0.92006216   -0.00257759   -0.56384526
 H   -0.81217528   -3.73230324   +4.85690772
 H   -0.33719150   -3.49351445   +3.15842238
 H   +0.96051031   -2.29013211   +4.79317632
 H   +1.19426422   -0.55600524   +4.94934404
 H   +2.52415372   -1.41436914   +3.13925026
 H   +1.15703249   -2.13795423   +2.33933635
 H   +1.21673180   +0.84437190   +2.84746336
 H   +2.09546946   +0.15042592   +1.49867008
 H   -0.94698321   +0.00564521   +1.84857320
 H   +0.92187221   +0.01258751   -0.56556285
