22
 * E =  +0.000 kcal/mol ; (1) 181_186_068_060_236
 C   +0.00000000   +0.00000000   +0.00000000
 C   +0.00000000   +0.00000000   +1.49726915
 O   +1.23696442   +0.00000000   +1.98611812
 O   -0.97755993   -0.01673142   +2.19733783
 C   +1.33357922   -0.01240241   +3.39873242
 H   +2.39224758   -0.01059434   +3.62321711
 H   +0.85335891   +0.86601820   +3.81833180
 H   +0.85803089   -0.90009231   +3.80422965
 C   -1.38347382   +0.15200511   -0.59639166
 C   -2.00987924   +1.52083352   -0.35167289
 C   -1.20762442   +2.63726572   -0.92257463
 C   -0.75444509   +3.68296388   -0.22784022
 H   +0.46044988   -0.93611468   -0.31548153
 H   -1.31685886   -0.02808155   -1.66928795
 H   -2.15365921   +1.67192786   +0.71591204
 H   -0.96294016   +2.56728870   -1.97712932
 H   -0.21314261   +4.48594229   -0.70372632
 H   -1.01447992   +3.81516393   +0.81283260
 H   +0.67130442   +0.79077726   -0.33236156
 H   -2.03851008   -0.61266005   -0.18413081
 H   -3.00100963   +1.52554427   -0.80919104
 H   +1.11241477   +3.08832471   +0.57201181
22
 * E =  +0.284 kcal/mol ; (2) 181_186_181_064_237
 C   +0.00000000   +0.00000000   +0.00000000
 C   +0.00000000   +0.00000000   +1.49542608
 O   +1.23711835   +0.00000000   +1.98774427
 O   -0.97882981   -0.00563243   +2.19263586
 C   +1.32863657   -0.01827888   +3.40084166
 H   +2.38652603   -0.01709364   +3.62924235
 H   +0.84545077   +0.85704752   +3.82368304
 H   +0.85269557   -0.90841609   +3.80036444
 C   -1.38903917   +0.13752198   -0.58133502
 C   -1.38816345   +0.10422351   -2.10413325
 C   -0.92064627   -1.19715110   -2.65651063
 C   +0.09825998   -1.35087350   -3.50457052
 H   +0.47849645   -0.92219398   -0.33141278
 H   -2.02073101   -0.65951070   -0.19174431
 H   -0.77075873   +0.91180361   -2.49864210
 H   -1.44959755   -2.07873781   -2.31152915
 H   +0.35675315   -2.31855879   -3.90547115
 H   +0.62428539   -0.49719867   -3.90802197
 H   +0.65667641   +0.80118524   -0.33844003
 H   -1.83650216   +1.06745641   -0.23622735
 H   -2.40616715   +0.28950712   -2.45135901
 H   +1.82135449   -1.57838297   -2.31063755
22
 * E =  +0.318 kcal/mol ; (3) 182_192_070_181_245
 C   +0.00000000   +0.00000000   +0.00000000
 C   +0.00000000   +0.00000000   +1.49828279
 O   +1.23617640   +0.00000000   +1.99044431
 O   -0.97923642   -0.01937733   +2.19487634
 C   +1.32824566   -0.04183976   +3.40374462
 H   +2.38608027   -0.03642905   +3.63185139
 H   +0.83842546   +0.82262148   +3.84072142
 H   +0.85893177   -0.94228637   +3.78749142
 C   -1.36482127   +0.28376396   -0.58970956
 C   -1.81721568   +1.72170242   -0.36875661
 C   -3.17364707   +1.96828757   -0.92593364
 C   -3.44408759   +2.79937534   -1.93418297
 H   +0.36154450   -0.98080834   -0.30977737
 H   -1.34206556   +0.07562082   -1.65798180
 H   -1.10295567   +2.40774247   -0.82524102
 H   -3.97955006   +1.38351502   -0.49849587
 H   -4.45266907   +2.95055148   -2.28605802
 H   -2.67802417   +3.43273323   -2.35863788
 H   +0.74752499   +0.71364085   -0.34318993
 H   -2.09047038   -0.39514650   -0.14464728
 H   -1.82501035   +1.92064215   +0.70369407
 H   -3.13225902   +1.63336149   -3.65805412
22
 * E =  +0.370 kcal/mol ; (4) 180_171_273_060_236
 C   +0.00000000   +0.00000000   +0.00000000
 C   +0.00000000   +0.00000000   +1.49882458
 O   +1.23795977   +0.00000000   +1.98335246
 O   -0.97586876   +0.03434769   +2.19996300
 C   +1.33793019   -0.00166500   +3.39571593
 H   +2.39711880   +0.00652185   +3.61771800
 H   +0.85209585   +0.87504845   +3.81251863
 H   +0.87018108   -0.89251944   +3.80350000
 C   -1.37376279   -0.21023729   -0.60638222
 C   -1.75120468   -1.67844446   -0.77413109
 C   -1.77411169   -2.44634731   +0.50101062
 C   -1.06580558   -3.55391477   +0.72686500
 H   +0.71240288   -0.75332091   -0.33509055
 H   -2.11135730   +0.29023847   +0.01875269
 H   -1.06264423   -2.15700604   -1.47179398
 H   -2.39224224   -2.04426963   +1.29339573
 H   -1.15446871   -4.09928431   +1.65354464
 H   -0.45797891   -3.99970806   -0.04814696
 H   +0.41748383   +0.96083753   -0.30104830
 H   -1.40836230   +0.26495974   -1.58463601
 H   -2.74163925   -1.72282860   -1.23137743
 H   +0.81100615   -2.90419716   +1.53132852
22
 * E =  +0.395 kcal/mol ; (5) 179_171_291_297_124
 C   +0.00000000   +0.00000000   +0.00000000
 C   +0.00000000   +0.00000000   +1.49760681
 O   +1.23705242   +0.00000000   +1.98845687
 O   -0.97775082   +0.01683161   +2.19671735
 C   +1.33089567   +0.03331017   +3.40140604
 H   +2.38904763   +0.02848683   +3.62824981
 H   +0.86034534   +0.93028887   +3.79187553
 H   +0.84350077   -0.83476666   +3.83407436
 C   -1.37664586   -0.22432464   -0.58912864
 C   -1.90602327   -1.63712225   -0.36682016
 C   -1.07914123   -2.67776406   -1.03623412
 C   -0.51757989   -3.72110825   -0.42093319
 H   +0.71058238   -0.75249964   -0.33834688
 H   -2.07264232   +0.48696941   -0.15001372
 H   -2.92313161   -1.68638926   -0.76032410
 H   -0.95747079   -2.57952592   -2.10952199
 H   +0.10055387   -4.42611632   -0.95487967
 H   -0.57454871   -3.83322178   +0.65250602
 H   +0.40803321   +0.96111893   -0.31286685
 H   -1.33588613   -0.01633077   -1.65812049
 H   -1.97291592   -1.83801083   +0.70069747
 H   -1.96514998   -5.22358038   -0.44642733
22
 * E =  +0.524 kcal/mol ; (6) 178_168_290_177_122
 C   +0.00000000   +0.00000000   +0.00000000
 C   +0.00000000   +0.00000000   +1.49840105
 O   +1.23615609   +0.00000000   +1.99040245
 O   -0.97936503   +0.02001977   +2.19464636
 C   +1.32841681   +0.04208620   +3.40376806
 H   +2.38631273   +0.03880925   +3.63159337
 H   +0.85731027   +0.94156725   +3.78755590
 H   +0.84056690   -0.82343670   +3.84081000
 C   -1.36374850   -0.29109079   -0.58904989
 C   -1.80402711   -1.73273969   -0.37443168
 C   -3.16926969   -1.99394842   -0.90270746
 C   -3.46893707   -2.90990864   -1.82578780
 H   +0.75117645   -0.70967096   -0.34337587
 H   -2.09334581   +0.38025547   -0.13890503
 H   -1.79300779   -1.94034722   +0.69699941
 H   -3.96887553   -1.40286375   -0.47203519
 H   -4.47513482   -3.02946207   -2.19606268
 H   -2.69631474   -3.48729051   -2.31344493
 H   +0.35615612   +0.98291270   -0.30933214
 H   -1.34364281   -0.07517169   -1.65583554
 H   -1.09261561   -2.41214798   -0.84507262
 H   -3.80911511   -4.68044921   -0.76072274
22
 * E =  +0.602 kcal/mol ; (7) 179_175_179_295_124
 C   +0.00000000   +0.00000000   +0.00000000
 C   +0.00000000   +0.00000000   +1.49551246
 O   +1.23762199   +0.00000000   +1.98732034
 O   -0.97838268   +0.00489848   +2.19293686
 C   +1.32947825   +0.01486930   +3.40063903
 H   +2.38739207   +0.01258586   +3.62888234
 H   +0.85397686   +0.90425284   +3.80230837
 H   +0.84593146   -0.86125831   +3.82132317
 C   -1.38958192   -0.12243819   -0.58333389
 C   -1.38445715   -0.09256312   -2.10621492
 C   -0.91383555   +1.20590389   -2.66141116
 C   +0.09479767   +1.35055673   -3.52358907
 H   +0.64679256   -0.81010666   -0.33665817
 H   -1.84714195   -1.04676376   -0.23688607
 H   -2.40118242   -0.27782326   -2.45775406
 H   -1.46593595   +2.08594924   -2.35089106
 H   +0.40860057   +2.32412404   -3.86663148
 H   +0.70147311   +0.50726214   -3.82178867
 H   +0.48738059   +0.91718553   -0.33160124
 H   -2.01304008   +0.68222782   -0.19624301
 H   -0.76689448   -0.90223478   -2.49621628
 H   -0.76960495   +1.13136012   -5.41183743
22
 * E =  +0.636 kcal/mol ; (8) 182_206_081_299_121
 C   +0.00000000   +0.00000000   +0.00000000
 C   +0.00000000   +0.00000000   +1.49875953
 O   +1.23324979   +0.00000000   +1.99540051
 O   -0.98276737   -0.04265085   +2.18996501
 C   +1.31762843   -0.04174035   +3.40850473
 H   +2.37425016   -0.03987139   +3.64263761
 H   +0.82896401   +0.82634511   +3.83987986
 H   +0.84224447   -0.93932206   +3.79157390
 C   -1.25448632   +0.61223105   -0.59324673
 C   -1.22284424   +2.13718796   -0.61653878
 C   -1.10423033   +2.74980700   +0.73457045
 C   -0.10893029   +3.55487483   +1.11386297
 H   +0.08659358   -1.04634768   -0.29530497
 H   -1.37976024   +0.25220912   -1.61236037
 H   -2.14048352   +2.49229116   -1.08941289
 H   -1.89339852   +2.51943014   +1.43926169
 H   -0.04870082   +3.93996764   +2.11999282
 H   +0.72795964   +3.75803218   +0.46057373
 H   +0.90181311   +0.49562875   -0.35287570
 H   -2.11410330   +0.26544711   -0.02209875
 H   -0.39569722   +2.47606266   -1.24137434
 H   -0.72286023   +5.47998614   +0.58306170
22
 * E =  +0.711 kcal/mol ; (9) 182_192_068_176_122
 C   +0.00000000   +0.00000000   +0.00000000
 C   +0.00000000   +0.00000000   +1.49839429
 O   +1.23698105   +0.00000000   +1.98932089
 O   -0.97842002   -0.01946034   +2.19558681
 C   +1.33035857   -0.04007304   +3.40254667
 H   +2.38844889   -0.03713111   +3.62957168
 H   +0.84359761   +0.82650906   +3.83877740
 H   +0.85895754   -0.93857183   +3.78827099
 C   -1.36204511   +0.29388493   -0.59168137
 C   -1.81777253   +1.72614758   -0.34877599
 C   -3.11087987   +2.03127473   -1.01808617
 C   -4.21266036   +2.44668247   -0.39096929
 H   +0.35524998   -0.98332146   -0.30919322
 H   -1.32535594   +0.09998125   -1.66334298
 H   -1.05126814   +2.40739926   -0.72910085
 H   -3.13290842   +1.92253591   -2.09654264
 H   -5.13492002   +2.61655460   -0.92443364
 H   -4.24796102   +2.51935665   +0.68652247
 H   +0.75219470   +0.70929116   -0.34220587
 H   -2.09406084   -0.39022952   -0.16720850
 H   -1.90596435   +1.90328650   +0.72132484
 H   -4.04511292   +4.54113089   -0.31236686
22
 * E =  +0.730 kcal/mol ; (10) 178_170_292_185_246
 C   +0.00000000   +0.00000000   +0.00000000
 C   +0.00000000   +0.00000000   +1.49834659
 O   +1.23812818   +0.00000000   +1.98736732
 O   -0.97686603   +0.01905650   +2.19742620
 C   +1.33348613   +0.04160043   +3.40032989
 H   +2.39189853   +0.04218356   +3.62593052
 H   +0.85967478   +0.93896477   +3.78578564
 H   +0.84995409   -0.82595375   +3.83829315
 C   -1.36787177   -0.25238354   -0.59712470
 C   -1.87046720   -1.67081396   -0.35872431
 C   -3.16394403   -1.92640967   -1.04824327
 C   -4.32390285   -2.15278440   -0.42839486
 H   +0.73120796   -0.73207959   -0.34041953
 H   -2.08301467   +0.45192981   -0.17672303
 H   -1.98151047   -1.83990326   +0.71022787
 H   -3.15317346   -1.86944814   -2.13075918
 H   -5.22895026   -2.35172254   -0.98097966
 H   -4.37206220   -2.25506958   +0.64625274
 H   +0.38680496   +0.97125577   -0.30923950
 H   -1.31958746   -0.05888741   -1.66838454
 H   -1.12049857   -2.37621638   -0.72598658
 H   -5.11935344   -0.25213975   -0.07987474
22
 * E =  +0.769 kcal/mol ; (11) 178_169_291_183_001
 C   +0.00000000   +0.00000000   +0.00000000
 C   +0.00000000   +0.00000000   +1.49820337
 O   +1.23719720   +0.00000000   +1.98874003
 O   -0.97798837   +0.01889716   +2.19617728
 C   +1.33101737   +0.04051009   +3.40187481
 H   +2.38915299   +0.03699310   +3.62868708
 H   +0.86028402   +0.93948293   +3.78732638
 H   +0.84359233   -0.82541276   +3.83872007
 C   -1.36764662   -0.25751406   -0.59564612
 C   -1.84930249   -1.67456587   -0.36410218
 C   -3.16308830   -2.00771191   -0.98222978
 C   -3.91723584   -1.18910182   -1.71872069
 H   +0.73453106   -0.72808953   -0.34139633
 H   -2.08035673   +0.44375376   -0.16454936
 H   -1.91102028   -1.86511608   +0.70874688
 H   -3.50306085   -3.02501469   -0.83394283
 H   -4.87110401   -1.51173889   -2.10527477
 H   -3.66433896   -0.14941228   -1.86078107
 H   +0.38241121   +0.97293149   -0.30913868
 H   -1.32403067   -0.05838747   -1.66572905
 H   -1.10547834   -2.37946581   -0.74747852
 H   -3.16608522   -1.38780242   -3.67626413
22
 * E =  +0.850 kcal/mol ; (12) 179_174_177_181_241
 C   +0.00000000   +0.00000000   +0.00000000
 C   +0.00000000   +0.00000000   +1.49669715
 O   +1.23830155   +0.00000000   +1.98667068
 O   -0.97785083   +0.00718669   +2.19379685
 C   +1.33174736   +0.01619604   +3.40016372
 H   +2.38987924   +0.01378016   +3.62725160
 H   +0.85674026   +0.90604831   +3.80134296
 H   +0.84829094   -0.85951043   +3.82169167
 C   -1.38705077   -0.13699939   -0.58565791
 C   -1.37272236   -0.06982247   -2.10593288
 C   -2.73742268   -0.18134386   -2.68796907
 C   -3.13591373   -1.15017219   -3.51442470
 H   +0.65937118   -0.79948542   -0.33623668
 H   -1.82928896   -1.07787480   -0.26337004
 H   -0.73799246   -0.85864882   -2.51034011
 H   -3.45749403   +0.56296389   -2.36877758
 H   -4.13352438   -1.16633067   -3.92465712
 H   -2.44007958   -1.88622070   -3.89133740
 H   +0.47457661   +0.92741863   -0.32387084
 H   -2.02522255   +0.64756959   -0.18233742
 H   -0.92658191   +0.87973634   -2.41265224
 H   -3.76750980   -2.70521214   -2.26573481
22
 * E =  +0.877 kcal/mol ; (13) 181_184_182_178_123
 C   +0.00000000   +0.00000000   +0.00000000
 C   +0.00000000   +0.00000000   +1.49668357
 O   +1.23809339   +0.00000000   +1.98681240
 O   -0.97806330   -0.00540222   +2.19363800
 C   +1.33141386   -0.01301991   +3.40035181
 H   +2.38951363   -0.00857440   +3.62753774
 H   +0.84652580   +0.86279642   +3.82001559
 H   +0.85777656   -0.90279069   +3.80331259
 C   -1.39018585   +0.10634893   -0.58456692
 C   -1.37659577   +0.05057230   -2.10453607
 C   -2.74340359   +0.10379846   -2.68944372
 C   -3.15797822   +1.01010037   -3.57637590
 H   +0.49603051   -0.91533577   -0.32545951
 H   -2.00801435   -0.69711481   -0.18649633
 H   -0.89136932   -0.87735388   -2.41955214
 H   -3.42962396   -0.67418448   -2.37597194
 H   -4.17404639   +1.02084332   -3.93861103
 H   -2.52248185   +1.83080725   -3.87729468
 H   +0.64060349   +0.81515468   -0.33538876
 H   -1.85583270   +1.03258843   -0.25318596
 H   -0.77567930   +0.86704907   -2.50568424
 H   -2.64720626   +0.21458557   -5.44711509
22
 * E =  +0.960 kcal/mol ; (14) 179_175_288_288_354
 C   +0.00000000   +0.00000000   +0.00000000
 C   +0.00000000   +0.00000000   +1.49776470
 O   +1.23752992   +0.00000000   +1.98611795
 O   -0.97668004   +0.01156198   +2.19897453
 C   +1.33536017   +0.01718590   +3.39896567
 H   +2.39423319   +0.01388792   +3.62244344
 H   +0.86251019   +0.90764803   +3.80140926
 H   +0.85308177   -0.85811179   +3.82275612
 C   -1.39337907   -0.11654540   -0.58560883
 C   -2.01231139   -1.49157947   -0.41588356
 C   -1.44217057   -2.58628244   -1.25381093
 C   -0.52331985   -2.47086303   -2.21611116
 H   +0.65324749   -0.80549409   -0.33204185
 H   -2.03481066   +0.61407853   -0.09815295
 H   -3.08101662   -1.43390567   -0.63417392
 H   -1.82929068   -3.57521303   -1.04065152
 H   -0.23535804   -3.32279120   -2.81155245
 H   -0.12223386   -1.51399242   -2.51698724
 H   +0.48408983   +0.92443224   -0.31440197
 H   -1.36209441   +0.14783644   -1.64180664
 H   -1.96079847   -1.78075186   +0.63494757
 H   +1.33282118   -2.78324408   -1.28865439
22
 * E =  +0.967 kcal/mol ; (15) 180_182_181_180_003
 C   +0.00000000   +0.00000000   +0.00000000
 C   +0.00000000   +0.00000000   +1.49668840
 O   +1.23821586   +0.00000000   +1.98672025
 O   -0.97801201   -0.00253062   +2.19367700
 C   +1.33171930   -0.00507911   +3.40027166
 H   +2.38987654   -0.00538685   +3.62727086
 H   +0.85222823   +0.87612748   +3.81486699
 H   +0.85294785   -0.88961519   +3.80861041
 C   -1.39401464   +0.04333793   -0.58322910
 C   -1.37353853   +0.02130751   -2.09639491
 C   -2.71137679   +0.06678369   -2.75178542
 C   -3.88574357   +0.18648895   -2.12873222
 H   +0.54156940   -0.88801987   -0.32745212
 H   -1.96782960   -0.80018178   -0.20292207
 H   -0.84627979   -0.86986934   -2.44696779
 H   -2.70253598   +0.03601619   -3.83409991
 H   -4.80994134   +0.18458083   -2.68486395
 H   -3.96732008   +0.17421886   -1.05234961
 H   +0.59960258   +0.84769794   -0.33162420
 H   -1.90325618   +0.93833099   -0.22945235
 H   -0.78261856   +0.86319445   -2.46873766
 H   -4.16833217   +2.24877535   -1.90022856
22
 * E =  +1.085 kcal/mol ; (16) 178_166_294_298_251
 C   +0.00000000   +0.00000000   +0.00000000
 C   +0.00000000   +0.00000000   +1.49789609
 O   +1.23617618   +0.00000000   +1.99113853
 O   -0.97924335   +0.02076393   +2.19450553
 C   +1.32709927   +0.04957611   +3.40427189
 H   +2.38472818   +0.04498317   +3.63335196
 H   +0.85775835   +0.95228621   +3.78267654
 H   +0.83646238   -0.81215378   +3.84575242
 C   -1.35283057   -0.33791481   -0.59239314
 C   -1.81580975   -1.76906717   -0.32734279
 C   -0.91668341   -2.79906989   -0.91728854
 C   -1.22549610   -3.55694254   -1.97164988
 H   +0.78537291   -0.66735081   -0.34802903
 H   -2.09313553   +0.34649365   -0.18333721
 H   -2.81708537   -1.89204440   -0.73680363
 H   +0.06868465   -2.90612297   -0.47976548
 H   -0.54430334   -4.30274759   -2.35084089
 H   -2.21205853   -3.52651758   -2.41226016
 H   +0.30977692   +0.99945343   -0.30696215
 H   -1.31161179   -0.17091278   -1.66745359
 H   -1.89463375   -1.91351003   +0.75044111
 H   -0.67426087   -2.38531168   -3.63559276
22
 * E =  +1.259 kcal/mol ; (17) 179_052_180_064_237
 C   +0.00000000   +0.00000000   +0.00000000
 C   +0.00000000   +0.00000000   +1.49539824
 O   +1.23727843   +0.00000000   +1.99289355
 O   -0.97792087   +0.00878175   +2.19309089
 C   +1.32243886   +0.01948996   +3.40634171
 H   +2.37912900   +0.01206475   +3.64045790
 H   +0.84969866   +0.91306118   +3.80195481
 H   +0.83101486   -0.85186761   +3.82771327
 C   +0.85633065   -1.09953662   -0.60623599
 C   +0.83938428   -1.06753650   -2.12945462
 C   +1.43950970   +0.17503459   -2.68862309
 C   +0.81949418   +1.02410065   -3.51075168
 H   +0.36429734   +0.97255116   -0.33265537
 H   +1.87869171   -0.99790766   -0.24585779
 H   -0.18129530   -1.17939685   -2.49550384
 H   +2.45171538   +0.40054748   -2.37174530
 H   +1.32726867   +1.88310316   -3.92086683
 H   -0.17247558   +0.81617697   -3.88610808
 H   -1.03451826   -0.08456476   -0.31957918
 H   +0.49938414   -2.07096368   -0.26609952
 H   +1.40126961   -1.92847648   -2.49619273
 H   -0.16699912   +2.41613298   -2.28250613
22
 * E =  +1.277 kcal/mol ; (18) 179_170_176_288_353
 C   +0.00000000   +0.00000000   +0.00000000
 C   +0.00000000   +0.00000000   +1.49531623
 O   +1.23713808   +0.00000000   +1.98768681
 O   -0.97865360   +0.01041989   +2.19279862
 C   +1.32826127   +0.03119411   +3.40070515
 H   +2.38605118   +0.03009962   +3.62950327
 H   +0.85377504   +0.92590037   +3.79163011
 H   +0.84308748   -0.83925132   +3.83122719
 C   -1.37750426   -0.23438841   -0.58318092
 C   -1.39998132   -0.13640536   -2.09647298
 C   -1.25840379   +1.23144216   -2.67786500
 C   -1.24497000   +2.38820472   -2.01132285
 H   +0.70865774   -0.75450661   -0.33914149
 H   -1.72242957   -1.22222989   -0.28419552
 H   -2.33658228   -0.55562109   -2.47075851
 H   -1.16051805   +1.26515446   -3.75596276
 H   -1.21547849   +3.32897426   -2.53790647
 H   -1.38553225   +2.43682606   -0.94129129
 H   +0.41425672   +0.95483983   -0.32489458
 H   -2.08487793   +0.46592700   -0.14324831
 H   -0.61986456   -0.77493110   -2.51879759
 H   +0.76907674   +2.81710907   -1.61124015
22
 * E =  +1.289 kcal/mol ; (19) 182_195_067_062_117
 C   +0.00000000   +0.00000000   +0.00000000
 C   +0.00000000   +0.00000000   +1.49816190
 O   +1.23598870   +0.00000000   +1.99160421
 O   -0.97971566   -0.02128314   +2.19388420
 C   +1.32650446   -0.04885054   +3.40490008
 H   +2.38411951   -0.04763796   +3.63405212
 H   +0.83894757   +0.81504038   +3.84550805
 H   +0.85398474   -0.94962780   +3.78387542
 C   -1.35071465   +0.34973692   -0.59086732
 C   -1.79932223   +1.78473900   -0.32819953
 C   -0.90492113   +2.81506004   -0.92430629
 C   -1.27394995   +3.68178645   -1.87014770
 H   +0.30022825   -1.00257121   -0.30643907
 H   -1.31516112   +0.17588681   -1.66504502
 H   -1.86504270   +1.93285167   +0.75075148
 H   +0.10344808   +2.88183440   -0.53358432
 H   -0.57586805   +4.38662052   -2.29427548
 H   -2.25530617   +3.63366581   -2.32059158
 H   +0.79169674   +0.65985457   -0.34779170
 H   -2.09564455   -0.32619488   -0.17614950
 H   -2.80542311   +1.91565903   -0.72315626
 H   -2.07597608   +5.31985280   -0.84163811
22
 * E =  +1.346 kcal/mol ; (20) 178_040_062_181_244
 C   +0.00000000   +0.00000000   +0.00000000
 C   +0.00000000   +0.00000000   +1.49892353
 O   +1.23428158   +0.00000000   +2.00209529
 O   -0.98186324   +0.02414048   +2.19026028
 C   +1.31278355   +0.04101583   +3.41599371
 H   +2.36821165   +0.02983107   +3.65526214
 H   +0.84424464   +0.94388242   +3.79488864
 H   +0.81295204   -0.82021971   +3.84816942
 C   +1.05328473   -0.89393151   -0.62952247
 C   +0.87020366   -2.36183146   -0.26703922
 C   +1.91862989   -3.22148527   -0.87855930
 C   +1.68913692   -4.16974681   -1.78875575
 H   +0.15660460   +1.03292929   -0.31196649
 H   +1.00737565   -0.78410520   -1.71172331
 H   -0.11618026   -2.70150703   -0.58260218
 H   +2.94132192   -3.01099988   -0.58841054
 H   +2.48876343   -4.77410932   -2.18773776
 H   +0.68239657   -4.44054113   -2.07355200
 H   -1.00246041   -0.27869353   -0.31227810
 H   +2.04150264   -0.56157184   -0.31698677
 H   +0.90953285   -2.46272395   +0.82020603
 H   +1.70361037   -3.14275666   -3.61960111
22
 * E =  +1.428 kcal/mol ; (21) 181_185_186_299_251
 C   +0.00000000   +0.00000000   +0.00000000
 C   +0.00000000   +0.00000000   +1.49697465
 O   +1.23860692   +0.00000000   +1.98617365
 O   -0.97713131   -0.00650654   +2.19515285
 C   +1.33306350   -0.01347985   +3.39955048
 H   +2.39136720   -0.01053358   +3.62585937
 H   +0.84991196   +0.86308501   +3.81963545
 H   +0.85846548   -0.90257485   +3.80291749
 C   -1.39153356   +0.12524488   -0.58025257
 C   -1.42686583   -0.02961447   -2.09751044
 C   -0.63325932   +1.00441751   -2.81855054
 C   -1.16344927   +1.99874691   -3.53385211
 H   +0.48067541   -0.92501001   -0.32316971
 H   -2.03158962   -0.62767281   -0.12543954
 H   -2.46185679   +0.01505340   -2.43214025
 H   +0.44398454   +0.96253007   -2.71218278
 H   -0.54419248   +2.71414546   -4.05216936
 H   -2.22823082   +2.05421976   -3.71112221
 H   +0.65494142   +0.80497794   -0.32914867
 H   -1.81175826   +1.09064829   -0.30383220
 H   -1.05285161   -1.02184709   -2.36005325
 H   -1.52637416   +3.52362414   -2.14052076
22
 * E =  +1.434 kcal/mol ; (22) 181_102_065_064_247
 C   +0.00000000   +0.00000000   +0.00000000
 C   +0.00000000   +0.00000000   +1.49468663
 O   +1.23310994   +0.00000000   +1.99973656
 O   -0.98313015   -0.02389699   +2.18793950
 C   +1.31067850   -0.03116958   +3.41355422
 H   +2.36596653   -0.01346931   +3.65303254
 H   +0.80687091   +0.83098904   +3.83905899
 H   +0.84633377   -0.93347523   +3.79931592
 C   -0.30226735   -1.38505362   -0.56792945
 C   -1.70467731   -1.89270658   -0.24858683
 C   -2.77625027   -1.05507285   -0.85658706
 C   -3.64620659   -0.31513207   -0.16463891
 H   +0.96557101   +0.34555921   -0.35598341
 H   -0.17348236   -1.33511248   -1.64902380
 H   -1.84826419   -1.94041563   +0.82821887
 H   -2.82013574   -1.03955712   -1.94011965
 H   -4.44021484   +0.22421762   -0.65774605
 H   -3.64653104   -0.32555523   +0.91597194
 H   -0.76819593   +0.69921714   -0.32175105
 H   +0.43557439   -2.09883326   -0.20267181
 H   -1.78947285   -2.91131663   -0.63063171
 H   -2.83448521   +1.59530735   +0.05442599
22
 * E =  +1.479 kcal/mol ; (23) 179_176_174_062_117
 C   +0.00000000   +0.00000000   +0.00000000
 C   +0.00000000   +0.00000000   +1.49702012
 O   +1.23845808   +0.00000000   +1.98634535
 O   -0.97740062   +0.00467371   +2.19489359
 C   +1.33306209   +0.01150436   +3.39978592
 H   +2.39138587   +0.00784661   +3.62593695
 H   +0.85903926   +0.90035300   +3.80432428
 H   +0.84958929   -0.86534436   +3.81892192
 C   -1.39461196   -0.09017365   -0.57953930
 C   -1.42727800   +0.05210348   -2.09693782
 C   -0.68057571   -1.01350755   -2.82154742
 C   -1.23896356   -1.89144100   -3.65737879
 H   +0.63440355   -0.82212471   -0.32754707
 H   -1.84481009   -1.03810921   -0.29048963
 H   -1.01192044   +1.02624557   -2.36790928
 H   +0.39254181   -1.04902318   -2.67752597
 H   -0.65909426   -2.66881762   -4.12999416
 H   -2.30947152   -1.92206033   -3.80311470
 H   +0.50462691   +0.91124508   -0.32501871
 H   -2.01075360   +0.68679427   -0.13203412
 H   -2.46331229   +0.05153587   -2.43136603
 H   -1.23826450   -0.94466292   -5.52763151
22
 * E =  +1.498 kcal/mol ; (24) 181_309_180_295_124
 C   +0.00000000   +0.00000000   +0.00000000
 C   +0.00000000   +0.00000000   +1.49549497
 O   +1.23660688   +0.00000000   +1.99372058
 O   -0.97883103   -0.01100253   +2.19196845
 C   +1.32130956   -0.02063197   +3.40732223
 H   +2.37795744   -0.01530470   +3.64157315
 H   +0.83170022   +0.85153582   +3.82906501
 H   +0.84677044   -0.91352138   +3.80226415
 C   +0.87399020   +1.08331001   -0.60998797
 C   +0.85343418   +1.04780578   -2.13310362
 C   +1.44097907   -0.20062716   -2.69107404
 C   +0.81684445   -1.03276792   -3.52742302
 H   -1.03344722   +0.10200269   -0.31825603
 H   +0.53320765   +2.06085640   -0.27126891
 H   +1.42122159   +1.90290239   -2.50494703
 H   +2.46450358   -0.41637433   -2.40570120
 H   +1.28540331   -1.94083495   -3.87357052
 H   -0.21834467   -0.88159260   -3.79859500
 H   +0.34911710   -0.97845715   -0.33160870
 H   +1.89490650   +0.96582898   -0.25058712
 H   -0.16728812   +1.16759376   -2.49653919
 H   +1.21437694   -0.28335878   -5.43446156
22
 * E =  +1.506 kcal/mol ; (25) 181_315_300_296_115
 C   +0.00000000   +0.00000000   +0.00000000
 C   +0.00000000   +0.00000000   +1.49856877
 O   +1.23617451   +0.00000000   +1.99868368
 O   -0.97905893   -0.01559286   +2.19438725
 C   +1.31932179   -0.03148361   +3.41219170
 H   +2.37566300   -0.03030223   +3.64778756
 H   +0.83139239   +0.83864613   +3.84033269
 H   +0.84175606   -0.92589841   +3.79982788
 C   +0.99278472   +0.97662193   -0.60818761
 C   +0.71745486   +2.42278265   -0.20843529
 C   -0.58745465   +2.92659068   -0.71865941
 C   -1.61813010   +3.28432495   +0.04949831
 H   -1.01679223   +0.21664206   -0.31249862
 H   +1.99976286   +0.70531478   -0.30006015
 H   +1.52254749   +3.04953434   -0.59472930
 H   -0.68185924   +3.01168844   -1.79528150
 H   -2.55727849   +3.59890020   -0.37840548
 H   -1.58679432   +3.15883599   +1.12256105
 H   +0.23517431   -1.01522124   -0.31960576
 H   +0.95330281   +0.88250790   -1.69308529
 H   +0.74746064   +2.51262468   +0.87814122
 H   -1.31085346   +5.31454930   +0.48066365
22
 * E =  +1.519 kcal/mol ; (26) 182_320_298_178_123
 C   +0.00000000   +0.00000000   +0.00000000
 C   +0.00000000   +0.00000000   +1.49902787
 O   +1.23398663   +0.00000000   +2.00243435
 O   -0.98232907   -0.02508438   +2.18958888
 C   +1.31253593   -0.03870418   +3.41649225
 H   +2.36798102   -0.02693408   +3.65559886
 H   +0.81281270   +0.82333429   +3.84712544
 H   +0.84415845   -0.94101632   +3.79688213
 C   +1.06219339   +0.88229160   -0.63099316
 C   +0.89301861   +2.35208537   -0.27357497
 C   +1.95738739   +3.20733224   -0.86330969
 C   +1.74016976   +4.25053832   -1.66652868
 H   -0.99979202   +0.28871016   -0.31189198
 H   +2.04683596   +0.54144639   -0.31604302
 H   +0.92069181   +2.45294219   +0.81469143
 H   +2.97637349   +2.96253364   -0.58711334
 H   +2.55588695   +4.81171490   -2.09484322
 H   +0.74428507   +4.49940544   -2.00444381
 H   +0.14508983   -1.03487551   -0.31112713
 H   +1.01665051   +0.76678239   -1.71263843
 H   -0.08594523   +2.70491063   -0.59778605
 H   +1.48024334   +5.88823349   -0.39187223
22
 * E =  +1.526 kcal/mol ; (27) 182_319_299_183_244
 C   +0.00000000   +0.00000000   +0.00000000
 C   +0.00000000   +0.00000000   +1.49903155
 O   +1.23405182   +0.00000000   +2.00016646
 O   -0.98207798   -0.02263361   +2.19042302
 C   +1.31664028   -0.03782988   +3.41371466
 H   +2.37284866   -0.02854415   +3.64937714
 H   +0.82040443   +0.82580366   +3.84534677
 H   +0.84673514   -0.93850051   +3.79622084
 C   +1.03592126   +0.91639439   -0.62678759
 C   +0.82871655   +2.37818654   -0.25280527
 C   +1.80362333   +3.27375099   -0.93140874
 C   +2.72947147   +4.00376001   -0.30672816
 H   -1.00757120   +0.26003053   -0.31221802
 H   +2.03287082   +0.60589692   -0.32203358
 H   +0.91492777   +2.49656350   +0.82737326
 H   +1.77517004   +3.28235921   -2.01485467
 H   +3.39887367   +4.65145721   -0.85099261
 H   +2.76507667   +4.05790172   +0.77198265
 H   +0.17851647   -1.02906947   -0.31273638
 H   +0.98472946   +0.80651653   -1.70964111
 H   -0.18771765   +2.67193369   -0.52509098
 H   +4.36120354   +2.70932882   -0.08168473
22
 * E =  +1.589 kcal/mol ; (28) 181_044_068_290_120
 C   +0.00000000   +0.00000000   +0.00000000
 C   +0.00000000   +0.00000000   +1.49860142
 O   +1.23531539   +0.00000000   +1.99891153
 O   -0.98149855   +0.04409663   +2.18913138
 C   +1.30994278   -0.01963185   +3.41188943
 H   +2.36461920   -0.01229141   +3.65547488
 H   +0.81342629   +0.84923677   +3.83214634
 H   +0.83346040   -0.91673832   +3.79724867
 C   +0.98844241   -0.94911849   -0.65754790
 C   +0.65211577   -2.42346511   -0.45741111
 C   +0.83366864   -2.89420535   +0.94373803
 C   -0.13452673   -3.40233442   +1.70825034
 H   +0.22527232   +1.02277549   -0.30391884
 H   +1.00030448   -0.73684571   -1.72518911
 H   +1.29868868   -3.01262655   -1.11051997
 H   +1.83808795   -2.82413430   +1.34437625
 H   +0.04842010   -3.69317120   +2.73112270
 H   -1.16011952   -3.43064323   +1.36947825
 H   -1.01906348   -0.20912904   -0.31330163
 H   +1.99048528   -0.74369509   -0.28433026
 H   -0.37291683   -2.61320333   -0.77687947
 H   -0.14028800   -5.46156250   +1.28891949
22
 * E =  +1.643 kcal/mol ; (29) 178_041_061_176_122
 C   +0.00000000   +0.00000000   +0.00000000
 C   +0.00000000   +0.00000000   +1.49905390
 O   +1.23386730   +0.00000000   +2.00170181
 O   -0.98230827   +0.02410417   +2.18980719
 C   +1.31336740   +0.03882529   +3.41555463
 H   +2.36901140   +0.02820819   +3.65382083
 H   +0.84414490   +0.94056926   +3.79632211
 H   +0.81469111   -0.82362476   +3.84667560
 C   +1.04768938   -0.90106323   -0.62917232
 C   +0.86183898   -2.36571227   -0.25872475
 C   +1.83238157   -3.25572525   -0.95065567
 C   +2.69305721   -4.06953208   -0.33647007
 H   +0.16325372   +1.03195311   -0.31169133
 H   +0.99354794   -0.78957649   -1.71179510
 H   -0.15473020   -2.66959071   -0.52154099
 H   +1.80583079   -3.24480012   -2.03418022
 H   +3.40088477   -4.66464478   -0.89200291
 H   +2.78615786   -4.07581473   +0.74012342
 H   -1.00421423   -0.27330934   -0.31170212
 H   +2.03999995   -0.57504555   -0.32559846
 H   +0.95868516   -2.48870982   +0.82002634
 H   +1.64845777   -5.85811474   -0.03850543
22
 * E =  +1.661 kcal/mol ; (30) 182_319_298_182_002
 C   +0.00000000   +0.00000000   +0.00000000
 C   +0.00000000   +0.00000000   +1.49901831
 O   +1.23429851   +0.00000000   +2.00086441
 O   -0.98172278   -0.02275803   +2.19081236
 C   +1.31543197   -0.03844012   +3.41456690
 H   +2.37127047   -0.02455289   +3.65169047
 H   +0.81466679   +0.82253209   +3.84620968
 H   +0.84928904   -0.94158707   +3.79582401
 C   +1.04188210   +0.90882863   -0.62804801
 C   +0.83524999   +2.36324680   -0.26102310
 C   +1.79929952   +3.31940086   -0.87441472
 C   +2.77842236   +3.00922295   -1.72700156
 H   -1.00596362   +0.26568717   -0.31234356
 H   +2.03406070   +0.58801178   -0.31633852
 H   +0.88007486   +2.47757916   +0.82527825
 H   +1.64958834   +4.36096915   -0.61942867
 H   +3.44691115   +3.76757705   -2.10298495
 H   +3.01306186   +1.98710660   -1.98278656
 H   +0.17081449   -1.03048997   -0.31213697
 H   +0.99271906   +0.79568596   -1.71038573
 H   -0.17683586   +2.67017780   -0.53884526
 H   +1.87294149   +3.02485594   -3.61738407
22
 * E =  +1.668 kcal/mol ; (31) 181_309_180_181_244
 C   +0.00000000   +0.00000000   +0.00000000
 C   +0.00000000   +0.00000000   +1.49687051
 O   +1.23620418   +0.00000000   +1.99407159
 O   -0.97936694   -0.01188859   +2.19209133
 C   +1.32199349   -0.01593171   +3.40795081
 H   +2.37878937   -0.01101116   +3.64123770
 H   +0.83379672   +0.85853008   +3.82642315
 H   +0.84633820   -0.90681473   +3.80603876
 C   +0.87810840   +1.07929576   -0.61064637
 C   +0.84857257   +1.03819898   -2.13222176
 C   +1.73041143   +2.07239478   -2.73732235
 C   +1.30527465   +3.08549850   -3.49454610
 H   -1.03363547   +0.10305882   -0.31635093
 H   +0.54573577   +2.06070898   -0.27354828
 H   -0.17267068   +1.17282014   -2.48828020
 H   +2.78412754   +2.00861460   -2.49237407
 H   +1.99385958   +3.79689780   -3.92299149
 H   +0.27089764   +3.16205880   -3.79812049
 H   +0.34847175   -0.98109992   -0.32590308
 H   +1.89939584   +0.95511080   -0.25541926
 H   +1.17038556   +0.04754690   -2.46256712
 H   +0.79323613   +4.58760116   -2.12901120
22
 * E =  +1.697 kcal/mol ; (32) 180_056_180_182_244
 C   +0.00000000   +0.00000000   +0.00000000
 C   +0.00000000   +0.00000000   +1.49657725
 O   +1.23680813   +0.00000000   +1.99127903
 O   -0.97876554   +0.00320982   +2.19310236
 C   +1.32620517   +0.00484034   +3.40487348
 H   +2.38359993   -0.00035768   +3.63526477
 H   +0.85040350   +0.89194871   +3.81116038
 H   +0.84027848   -0.87351927   +3.81789461
 C   +0.78321086   -1.15771442   -0.59838623
 C   +0.75514086   -1.13241114   -2.12033382
 C   +1.48228581   -2.28682357   -2.71363309
 C   +2.57756555   -2.18860213   -3.46932966
 H   +0.43474480   +0.94318828   -0.33203190
 H   +1.81321771   -1.12021284   -0.25069812
 H   +1.18954532   -0.20015939   -2.48160063
 H   +1.10684705   -3.27191096   -2.46250111
 H   +3.05232832   -3.06113671   -3.89012196
 H   +2.95941966   -1.22640211   -3.77967063
 H   -1.03797405   -0.01981302   -0.31833897
 H   +0.36499110   -2.10039803   -0.24393029
 H   -0.28468135   -1.14720323   -2.45499216
 H   +4.16339831   -2.13850698   -2.10232376
22
 * E =  +1.697 kcal/mol ; (33) 178_042_062_179_004
 C   +0.00000000   +0.00000000   +0.00000000
 C   +0.00000000   +0.00000000   +1.49914654
 O   +1.23444898   +0.00000000   +1.99923309
 O   -0.98166675   +0.02172631   +2.19119077
 C   +1.31914999   +0.03424406   +3.41274983
 H   +2.37569316   +0.02490526   +3.64675928
 H   +0.84904204   +0.93355864   +3.79819055
 H   +0.82442880   -0.83105500   +3.84273937
 C   +1.03468200   -0.91939123   -0.62506354
 C   +0.81190513   -2.37140463   -0.25776513
 C   +1.77843555   -3.33713068   -0.85193951
 C   +2.84084008   -3.02765559   -1.59873055
 H   +0.18126464   +1.02845626   -0.31282405
 H   +0.99135697   -0.80441377   -1.70756801
 H   -0.20031631   -2.67229737   -0.53903073
 H   +1.60511748   -4.37826056   -0.61046472
 H   +3.47289932   -3.79909138   -2.00949485
 H   +3.04429715   -2.01591852   -1.91526448
 H   -1.00814328   -0.25691603   -0.31271503
 H   +2.02864327   -0.60938548   -0.30847887
 H   +0.85005123   -2.48060735   +0.83005227
 H   +4.37810325   -2.66693886   -0.22791630
22
 * E =  +1.750 kcal/mol ; (34) 179_052_180_178_122
 C   +0.00000000   +0.00000000   +0.00000000
 C   +0.00000000   +0.00000000   +1.49675783
 O   +1.23656440   +0.00000000   +1.99329626
 O   -0.97896922   +0.00956251   +2.19260654
 C   +1.32297819   +0.01463417   +3.40713475
 H   +2.37986489   +0.00955583   +3.63999355
 H   +0.84754891   +0.90518659   +3.80620392
 H   +0.83483542   -0.86011353   +3.82511050
 C   +0.85591160   -1.09957569   -0.60666637
 C   +0.82957750   -1.06368428   -2.12748324
 C   +1.70337731   -2.10230186   -2.73646456
 C   +1.28853008   -3.04383952   -3.58599932
 H   +0.37022095   +0.97228686   -0.32776140
 H   +1.87917892   -0.99514802   -0.25050781
 H   +1.16188834   -0.07669803   -2.46017013
 H   +2.75445265   -2.05830313   -2.47610088
 H   +1.96188779   -3.79560971   -3.96703501
 H   +0.24227685   -3.15318456   -3.83357758
 H   -1.03520989   -0.08256461   -0.31709791
 H   +0.50281182   -2.07185901   -0.26422248
 H   -0.19195363   -1.18706788   -2.48677919
 H   +1.42185480   -2.16709731   -5.48105924
22
 * E =  +1.866 kcal/mol ; (35) 181_065_053_055_114
 C   +0.00000000   +0.00000000   +0.00000000
 C   +0.00000000   +0.00000000   +1.49605501
 O   +1.23667167   +0.00000000   +1.99057714
 O   -0.97941272   -0.02606410   +2.19254891
 C   +1.32757464   -0.03025668   +3.40419455
 H   +2.38511172   -0.02565368   +3.63379634
 H   +0.83920791   +0.83898231   +3.83325105
 H   +0.85510540   -0.92599305   +3.79524100
 C   +0.59897935   -1.28321605   -0.56546916
 C   -0.04145305   -2.55459783   -0.01505148
 C   -1.51988054   -2.60682800   -0.18968938
 C   -2.15340527   -3.47967244   -0.97592420
 H   +0.57586900   +0.85486264   -0.34824919
 H   +0.48743135   -1.26185626   -1.64812387
 H   +0.19126913   -2.63238541   +1.05011625
 H   -2.10188757   -1.90557119   +0.39591138
 H   -3.22523189   -3.45475694   -1.09647952
 H   -1.60647448   -4.17010975   -1.60265363
 H   -1.02892689   +0.12750184   -0.32017442
 H   +1.66553752   -1.30301205   -0.35014695
 H   +0.41553467   -3.41782341   -0.49618424
 H   -2.46730309   -5.17191629   +0.21484745
22
 * E =  +2.049 kcal/mol ; (36) 182_051_073_297_254
 C   +0.00000000   +0.00000000   +0.00000000
 C   +0.00000000   +0.00000000   +1.49861247
 O   +1.23475803   +0.00000000   +1.99042707
 O   -0.98099015   +0.01479979   +2.19404005
 C   +1.33020308   -0.04184439   +3.40229141
 H   +2.38796945   -0.01763095   +3.62901577
 H   +0.82064766   +0.80914349   +3.84306466
 H   +0.88398431   -0.95733878   +3.77944775
 C   +0.87406069   -1.07402398   -0.63262603
 C   +0.31946550   -2.49283031   -0.52040952
 C   +0.18506308   -2.98927418   +0.87905963
 C   +0.99595419   -3.89188133   +1.43434188
 H   +0.36072677   +0.98056250   -0.31001259
 H   +0.98954326   -0.83776124   -1.68911924
 H   +0.97411302   -3.16333060   -1.07542729
 H   -0.60843618   -2.56421076   +1.48104570
 H   +0.84356019   -4.24081330   +2.44390909
 H   +1.76732883   -4.38352494   +0.85825819
 H   -1.03446966   -0.08476469   -0.32105448
 H   +1.86561019   -1.03525068   -0.18579795
 H   -0.65628346   -2.52645340   -1.00905291
 H   +2.59804798   -2.73715756   +2.21159355
22
 * E =  +2.179 kcal/mol ; (37) 180_061_191_071_012
 C   +0.00000000   +0.00000000   +0.00000000
 C   +0.00000000   +0.00000000   +1.49480452
 O   +1.24248100   +0.00000000   +1.98174520
 O   -0.97247426   +0.00343261   +2.19962374
 C   +1.34194978   +0.00098659   +3.39458930
 H   +2.40088744   -0.00222146   +3.61813102
 H   +0.86676696   +0.88571053   +3.80674967
 H   +0.86112775   -0.87978774   +3.80855998
 C   +0.69005099   -1.22338323   -0.59242630
 C   +0.92229628   -1.08845424   -2.08490578
 C   +1.96896575   -0.10327238   -2.48867782
 C   +2.84769805   +0.49283883   -1.67948861
 H   +0.51083480   +0.90306767   -0.33130763
 H   +1.63820154   -1.39227667   -0.08560279
 H   -0.01451489   -0.83279594   -2.58497904
 H   +2.03851708   +0.09054986   -3.55171047
 H   +3.56751113   +1.19558087   -2.06887939
 H   +2.80881170   +0.38572343   -0.60476997
 H   -1.03360291   +0.05870781   -0.32619534
 H   +0.07663168   -2.10255977   -0.40301619
 H   +1.20610987   -2.06091023   -2.49445220
 H   +4.44779813   -0.87112792   -1.53043365
22
 * E =  +2.350 kcal/mol ; (38) 181_311_185_298_251
 C   +0.00000000   +0.00000000   +0.00000000
 C   +0.00000000   +0.00000000   +1.49652055
 O   +1.23531379   +0.00000000   +1.99406535
 O   -0.98040749   -0.01129776   +2.19083168
 C   +1.32148153   -0.02180771   +3.40768402
 H   +2.37841398   -0.01837074   +3.64031762
 H   +0.83370887   +0.85092814   +3.83035124
 H   +0.84585369   -0.91429470   +3.80217774
 C   +0.91168948   +1.05487057   -0.60660371
 C   +0.80564955   +1.13104204   -2.12713124
 C   +1.20394864   -0.12962610   -2.81291995
 C   +2.32056345   -0.27681503   -3.52906258
 H   -1.03091690   +0.13616101   -0.31494669
 H   +0.65739474   +2.02990242   -0.19187820
 H   +1.43367506   +1.94632019   -2.48265106
 H   +0.55755706   -0.98872886   -2.68164402
 H   +2.55584227   -1.20654345   -4.02315650
 H   +2.96945557   +0.56323389   -3.73283485
 H   +0.31560852   -0.99327803   -0.31967214
 H   +1.94074671   +0.84788468   -0.32154777
 H   -0.22223420   +1.38261535   -2.39680214
 H   +3.79102214   -0.79942518   -2.12810980
22
 * E =  +2.408 kcal/mol ; (39) 180_326_289_073_230
 C   +0.00000000   +0.00000000   +0.00000000
 C   +0.00000000   +0.00000000   +1.49863071
 O   +1.22890938   +0.00000000   +2.01207935
 O   -0.98886214   -0.05492949   +2.17778282
 C   +1.28798983   -0.00444621   +3.42717045
 H   +2.34024297   -0.00767486   +3.68128751
 H   +0.79910905   +0.88148900   +3.82218252
 H   +0.79472836   -0.88569840   +3.82510782
 C   +1.11605108   +0.76645270   -0.68660088
 C   +1.00893391   +2.28254624   -0.56934425
 C   +1.33055772   +2.83238299   +0.77741436
 C   +0.57120088   +3.69390751   +1.45862190
 H   -0.97835781   +0.35804747   -0.30948891
 H   +2.07788071   +0.43428395   -0.29891952
 H   +0.01514320   +2.61174353   -0.87461162
 H   +2.26766709   +2.50422810   +1.21085981
 H   +0.91368194   +4.13430578   +2.38190188
 H   -0.35030198   +4.07879700   +1.04562285
 H   +0.05129167   -1.05019335   -0.29091736
 H   +1.09754872   +0.50300733   -1.74279539
 H   +1.71106264   +2.71919513   -1.28326297
 H   -0.66736754   +2.65203595   +2.76562582
22
 * E =  +2.412 kcal/mol ; (40) 179_050_184_297_249
 C   +0.00000000   +0.00000000   +0.00000000
 C   +0.00000000   +0.00000000   +1.49750825
 O   +1.23508807   +0.00000000   +1.99756370
 O   -0.98038923   +0.01582098   +2.19112232
 C   +1.31688701   +0.02199026   +3.41157111
 H   +2.37300001   +0.01502082   +3.64796816
 H   +0.84265717   +0.91603767   +3.80422716
 H   +0.82462124   -0.84900922   +3.83247906
 C   +0.90137828   -1.06103616   -0.61085938
 C   +0.96021836   -0.99045335   -2.13399429
 C   -0.34875417   -1.25361515   -2.79395675
 C   -0.61961538   -2.34103443   -3.51882570
 H   +0.33187822   +0.98858989   -0.32233252
 H   +1.90539244   -0.94263950   -0.21013238
 H   +1.69218430   -1.71249936   -2.49228301
 H   -1.13822216   -0.53002237   -2.63287660
 H   -1.57913934   -2.47916420   -3.99217750
 H   +0.14894194   -3.06484545   -3.75055427
 H   -1.03356835   -0.11797934   -0.30837479
 H   +0.55278883   -2.04970031   -0.31333771
 H   +1.32349058   -0.00195230   -2.42450843
 H   -1.24445156   -3.77154625   -2.12173984
22
 * E =  +2.442 kcal/mol ; (41) 179_051_175_062_116
 C   +0.00000000   +0.00000000   +0.00000000
 C   +0.00000000   +0.00000000   +1.49645321
 O   +1.23607003   +0.00000000   +1.99317374
 O   -0.97949749   +0.00914859   +2.19184651
 C   +1.32262283   +0.01644601   +3.40693940
 H   +2.37957595   +0.01291720   +3.63950090
 H   +0.84621368   +0.90693144   +3.80500063
 H   +0.83554114   -0.85829991   +3.82621339
 C   +0.87933154   -1.08503800   -0.60210018
 C   +0.78315533   -1.15657038   -2.12243595
 C   +1.23109753   +0.08349336   -2.81474261
 C   +2.28059494   +0.15062684   -3.63652555
 H   +0.34688083   +0.98213144   -0.32123266
 H   +1.91220045   -0.91565420   -0.30631567
 H   -0.25243334   -1.36786420   -2.39954823
 H   +0.63820755   +0.97673432   -2.66065973
 H   +2.58665927   +1.08226150   -4.08624382
 H   +2.92535713   -0.70282384   -3.79173439
 H   -1.03395045   -0.10644495   -0.31599924
 H   +0.58649288   -2.05071845   -0.19084086
 H   +1.37879672   -1.99702855   -2.47509887
 H   +1.53418198   -0.35645164   -5.52548985
22
 * E =  +2.452 kcal/mol ; (42) 181_307_176_063_118
 C   +0.00000000   +0.00000000   +0.00000000
 C   +0.00000000   +0.00000000   +1.49726620
 O   +1.23599382   +0.00000000   +1.99527207
 O   -0.97948160   -0.01051089   +2.19233388
 C   +1.32059961   -0.01581280   +3.40917331
 H   +2.37720912   -0.01099620   +3.64337269
 H   +0.83195252   +0.85857645   +3.82730773
 H   +0.84465808   -0.90669487   +3.80687863
 C   +0.84493978   +1.11220162   -0.60202934
 C   +0.91191059   +1.05606929   -2.12429704
 C   -0.40380847   +1.23965977   -2.79734787
 C   -0.69151423   +2.24517680   -3.62628528
 H   -1.03770761   +0.06613533   -0.30964830
 H   +0.44436271   +2.07832407   -0.29608976
 H   +1.33488252   +0.09225201   -2.41908188
 H   -1.15919082   +0.48409547   -2.62024939
 H   -1.67272278   +2.35480873   -4.06104368
 H   +0.01408613   +3.04469205   -3.80269139
 H   +0.38643720   -0.96669444   -0.32677942
 H   +1.85292019   +1.04326655   -0.19936065
 H   +1.60214690   +1.82060504   -2.47728852
 H   -0.07710052   +1.58933675   -5.51874891
22
 * E =  +2.603 kcal/mol ; (43) 179_311_287_062_113
 C   +0.00000000   +0.00000000   +0.00000000
 C   +0.00000000   +0.00000000   +1.49851983
 O   +1.23450715   +0.00000000   +1.99382219
 O   -0.98097905   -0.02032056   +2.19327008
 C   +1.32367475   +0.02038359   +3.40657663
 H   +2.38077471   +0.00374402   +3.63770572
 H   +0.86282924   +0.92237524   +3.79782072
 H   +0.82371405   -0.84402858   +3.83190074
 C   +0.89981271   +1.04793731   -0.63954863
 C   +0.37532294   +2.47819019   -0.54294126
 C   +0.21515609   +2.98851147   +0.84830280
 C   +0.95025869   +3.96951466   +1.37627278
 H   -1.03269319   +0.10932606   -0.31951935
 H   +1.88917407   +0.98912570   -0.19076599
 H   -0.58962099   +2.52964415   -1.05244931
 H   -0.57738913   +2.55416189   +1.44528827
 H   +0.81810688   +4.28491951   +2.39959549
 H   +1.77479777   +4.40790556   +0.83181637
 H   +0.33320126   -0.99147887   -0.30664473
 H   +1.01246509   +0.79899820   -1.69342234
 H   +1.05271404   +3.13455532   -1.08745230
 H   -0.03560030   +5.74384837   +0.84909729
22
 * E =  +2.644 kcal/mol ; (44) 182_219_084_303_248
 C   +0.00000000   +0.00000000   +0.00000000
 C   +0.00000000   +0.00000000   +1.49932711
 O   +1.23281796   +0.00000000   +2.00473390
 O   -0.98528249   -0.02847221   +2.18463858
 C   +1.30451648   -0.05071392   +3.41921871
 H   +2.35879459   -0.03767075   +3.66332021
 H   +0.79870488   +0.80582646   +3.85383126
 H   +0.83716958   -0.95774291   +3.78958770
 C   -1.09022558   +0.88340094   -0.58538431
 C   -0.69705903   +2.35523263   -0.68460282
 C   -0.30406343   +2.96686323   +0.61527909
 C   -1.00346258   +3.91029907   +1.24902057
 H   -0.16838180   -1.03680551   -0.29111530
 H   -1.33834598   +0.52712539   -1.58314381
 H   -1.52742775   +2.91612498   -1.11077228
 H   +0.59950343   +2.58950222   +1.08070342
 H   -0.65845633   +4.34271319   +2.17513206
 H   -1.87905365   +4.35536475   +0.79821678
 H   +0.98789357   +0.27377371   -0.36332800
 H   -1.98356732   +0.77856983   +0.02760727
 H   +0.13636970   +2.44335733   -1.38563153
 H   -2.37587469   +2.86361365   +2.41587138
22
 * E =  +7.231 kcal/mol ; (45) 002_187_070_063_237
 C   +0.00000000   +0.00000000   +0.00000000
 C   +0.00000000   +0.00000000   +1.50530757
 O   +1.18249308   +0.00000000   +2.12988483
 O   -1.00003313   -0.02373032   +2.16383443
 C   +2.39253976   +0.05243547   +1.40877134
 H   +3.17858278   -0.03308905   +2.14868124
 H   +2.47763267   -0.77154897   +0.70424112
 H   +2.49940807   +0.99899123   +0.88372285
 C   -1.39255111   +0.16096806   -0.57405952
 C   -1.97673804   +1.55249639   -0.35519169
 C   -1.19539643   +2.62244581   -1.03429661
 C   -0.64975615   +3.67558377   -0.42527685
 H   +0.44380737   -0.94086836   -0.32946601
 H   -1.35374429   -0.05216000   -1.64227686
 H   -2.04771732   +1.75432131   +0.71129872
 H   -1.05861181   +2.51278894   -2.10501058
 H   -0.13096707   +4.44241113   -0.97967176
 H   -0.79147885   +3.84413718   +0.63292572
 H   +0.65923282   +0.78866581   -0.36271526
 H   -2.05190132   -0.57448602   -0.11981421
 H   -2.99514259   +1.55716085   -0.74742690
 H   +1.35756653   +3.04611148   +0.17013684
22
 * E =  +7.735 kcal/mol ; (46) 001_181_180_062_238
 C   +0.00000000   +0.00000000   +0.00000000
 C   +0.00000000   +0.00000000   +1.50217862
 O   +1.18568485   +0.00000000   +2.12447744
 O   -0.99940424   -0.00374907   +2.16058821
 C   +2.39257209   +0.01284345   +1.39672160
 H   +3.18207587   -0.03091645   +2.13648628
 H   +2.47555094   -0.84695865   +0.73636221
 H   +2.50042360   +0.92715713   +0.81755418
 C   -1.40070246   +0.01459004   -0.56925092
 C   -1.40288357   +0.01975764   -2.09263658
 C   -0.77501754   -1.19765289   -2.67649483
 C   +0.26402178   -1.19980329   -3.51354228
 H   +0.54883338   -0.87303981   -0.35541184
 H   -1.94545146   -0.85096525   -0.19582017
 H   -0.89381113   +0.90838916   -2.46729714
 H   -1.19514397   -2.14740683   -2.36417621
 H   +0.64781941   -2.11629269   -3.93403440
 H   +0.68548416   -0.27621653   -3.88474916
 H   +0.56883017   +0.86061857   -0.35668033
 H   -1.93417602   +0.88501727   -0.19475899
 H   -2.43740808   +0.08348550   -2.43385157
 H   +1.99421149   -1.23066867   -2.26433722
22
 * E =  +7.981 kcal/mol ; (47) 357_174_272_057_236
 C   +0.00000000   +0.00000000   +0.00000000
 C   +0.00000000   +0.00000000   +1.50728027
 O   +1.18402863   +0.00000000   +2.12866701
 O   -0.99677976   +0.04771316   +2.16898100
 C   +2.39324787   -0.07118453   +1.40951988
 H   +3.17934809   +0.01682567   +2.14911482
 H   +2.49385637   -1.02606582   +0.89846417
 H   +2.48659374   +0.74291926   +0.69453698
 C   -1.38978131   -0.15163715   -0.59070022
 C   -1.80923140   -1.60481719   -0.79019078
 C   -1.76880787   -2.41924241   +0.45556909
 C   -1.06761908   -3.54341693   +0.59248179
 H   +0.66350431   -0.78511281   -0.36401425
 H   -2.09971656   +0.35244985   +0.06123084
 H   -1.17317630   -2.07034139   -1.54454920
 H   -2.32952477   -2.03861571   +1.29914557
 H   -1.08982456   -4.11370517   +1.50806034
 H   -0.51243618   -3.96370090   -0.23491993
 H   +0.44973354   +0.94330491   -0.31418022
 H   -1.42413754   +0.34928509   -1.55605148
 H   -2.82501560   -1.61138315   -1.18952862
 H   +0.95753697   -2.87840904   +1.26243635
22
 * E =  +8.169 kcal/mol ; (48) 358_172_290_298_124
 C   +0.00000000   +0.00000000   +0.00000000
 C   +0.00000000   +0.00000000   +1.50509599
 O   +1.18408125   +0.00000000   +2.12917356
 O   -0.99865828   +0.02161999   +2.16478882
 C   +2.39282461   -0.04714968   +1.40672587
 H   +3.17976310   +0.05220860   +2.14393418
 H   +2.50972336   -0.99654272   +0.88911371
 H   +2.46966222   +0.77044459   +0.69404915
 C   -1.38833789   -0.19197115   -0.57487494
 C   -1.93615554   -1.59893600   -0.36017669
 C   -1.12157800   -2.64587576   -1.03501092
 C   -0.56680418   -3.69499300   -0.42183934
 H   +0.67474162   -0.77389666   -0.36503446
 H   -2.06496070   +0.52586463   -0.11807818
 H   -2.95310491   -1.63182370   -0.75536896
 H   -1.00483151   -2.54941585   -2.10913260
 H   +0.04215756   -4.40580318   -0.95890768
 H   -0.62072895   -3.80646680   +0.65190486
 H   +0.42349977   +0.95062684   -0.32822700
 H   -1.35418059   +0.02546749   -1.64231446
 H   -2.00614280   -1.80356621   +0.70591781
 H   -2.01668634   -5.17917256   -0.44200533
22
 * E =  +8.383 kcal/mol ; (49) 002_187_071_181_246
 C   +0.00000000   +0.00000000   +0.00000000
 C   +0.00000000   +0.00000000   +1.50577669
 O   +1.18349152   +0.00000000   +2.13078135
 O   -0.99933973   -0.02189133   +2.16392302
 C   +2.39414354   +0.03576680   +1.41100074
 H   +3.17871143   -0.06473771   +2.15049545
 H   +2.46793509   -0.78567405   +0.70250252
 H   +2.51965455   +0.98185926   +0.88920888
 C   -1.38989208   +0.16939591   -0.57719209
 C   -1.94403309   +1.57489162   -0.38079189
 C   -3.32154021   +1.70486626   -0.92561390
 C   -3.66251221   +2.47734228   -1.95867803
 H   +0.43719553   -0.94473828   -0.32731922
 H   -1.36227148   -0.05872893   -1.64136851
 H   -1.28942714   +2.30051155   -0.86536687
 H   -4.07826556   +1.08119675   -0.46485870
 H   -4.68347607   +2.54418381   -2.30076333
 H   -2.94861404   +3.14717246   -2.41683944
 H   +0.66835069   +0.77929925   -0.36711370
 H   -2.05618659   -0.55129720   -0.10715156
 H   -1.95264302   +1.79708945   +0.68660237
 H   -3.28762621   +1.27027970   -3.64433699
22
 * E =  +8.472 kcal/mol ; (50) 000_179_180_296_125
 C   +0.00000000   +0.00000000   +0.00000000
 C   +0.00000000   +0.00000000   +1.50271935
 O   +1.18500630   +0.00000000   +2.12743584
 O   -0.99951565   +0.00261685   +2.16035449
 C   +2.39319342   -0.00807855   +1.40345917
 H   +3.18107241   +0.02797155   +2.14539548
 H   +2.50222152   -0.91705448   +0.81611522
 H   +2.47897963   +0.85902224   +0.75289621
 C   -1.40255590   -0.02590266   -0.56537803
 C   -1.41397483   -0.01422274   -2.08822115
 C   -0.84438972   +1.23402128   -2.66559559
 C   +0.15848882   +1.28404384   -3.54563346
 H   +0.57238101   -0.85863435   -0.35563175
 H   -1.92123100   -0.90779779   -0.19718967
 H   -2.44730070   -0.11781835   -2.42433258
 H   -1.31606584   +2.16067789   -2.35813452
 H   +0.54723059   +2.22397379   -3.90545158
 H   +0.68660537   +0.38935028   -3.84388287
 H   +0.54052225   +0.87791843   -0.35670633
 H   -1.95734098   +0.82739028   -0.17894592
 H   -0.87216716   -0.87735025   -2.47654981
 H   -0.74557571   +1.11885914   -5.41129126
22
 * E =  +8.638 kcal/mol ; (51) 358_173_288_177_121
 C   +0.00000000   +0.00000000   +0.00000000
 C   +0.00000000   +0.00000000   +1.50597874
 O   +1.18341952   +0.00000000   +2.13095792
 O   -0.99940104   +0.02324878   +2.16382823
 C   +2.39420035   -0.04131941   +1.41168814
 H   +3.17868709   +0.06476534   +2.15048513
 H   +2.51952338   -0.99156447   +0.89741544
 H   +2.46826406   +0.77453366   +0.69675263
 C   -1.39014061   -0.17277650   -0.57611264
 C   -1.93311638   -1.58333357   -0.39316980
 C   -3.32576766   -1.72192338   -0.89572163
 C   -3.71312489   -2.57362437   -1.84732212
 H   +0.67009055   -0.77754169   -0.36761158
 H   -2.05968398   +0.53840665   -0.09631021
 H   -1.91356808   -1.82480301   +0.67043454
 H   -4.06916791   -1.09394818   -0.41930745
 H   -4.73372645   -2.60415855   -2.19549509
 H   -2.99653185   -3.18376091   -2.37874972
 H   +0.43465758   +0.94610489   -0.32668188
 H   -1.36607301   +0.06884194   -1.63739784
 H   -1.28720554   -2.29863124   -0.90399618
 H   -4.15791076   -4.35618388   -0.85019719
22
 * E =  +8.836 kcal/mol ; (52) 358_174_290_183_001
 C   +0.00000000   +0.00000000   +0.00000000
 C   +0.00000000   +0.00000000   +1.50560487
 O   +1.18436846   +0.00000000   +2.12976033
 O   -0.99847498   +0.02074568   +2.16473928
 C   +2.39492861   -0.03281470   +1.40986211
 H   +3.17967199   +0.05648733   +2.15063187
 H   +2.51732237   -0.97344191   +0.87757085
 H   +2.47252208   +0.79623809   +0.71064419
 C   -1.38936862   -0.15521870   -0.58278344
 C   -1.96138882   -1.54127644   -0.37024382
 C   -3.29526092   -1.77641885   -0.99010879
 C   -3.99803082   -0.89646258   -1.70619461
 H   +0.66124583   -0.78631964   -0.36538017
 H   -2.04715710   +0.58400558   -0.12969081
 H   -2.03156538   -1.74314928   +0.69953762
 H   -3.69900976   -2.77264517   -0.86046132
 H   -4.97142372   -1.15010119   -2.09541670
 H   -3.68120690   +0.12821602   -1.82768238
 H   +0.44808758   +0.93959761   -0.32707827
 H   -1.34231789   +0.05867789   -1.65000283
 H   -1.26724365   -2.28733362   -0.76938457
 H   -3.25908990   -1.09879192   -3.67184423
22
 * E =  +8.842 kcal/mol ; (53) 002_187_070_176_122
 C   +0.00000000   +0.00000000   +0.00000000
 C   +0.00000000   +0.00000000   +1.50589188
 O   +1.18451884   +0.00000000   +2.12981499
 O   -0.99842672   -0.02291628   +2.16475277
 C   +2.39441700   +0.04113756   +1.40941905
 H   +3.17982488   -0.05966779   +2.14801835
 H   +2.47018048   -0.77785668   +0.69825435
 H   +2.51720380   +0.98929402   +0.89067086
 C   -1.38903818   +0.17090800   -0.57925844
 C   -1.95189446   +1.56980534   -0.37006724
 C   -3.27037402   +1.75281443   -1.03477843
 C   -4.39533346   +2.10024470   -0.40758352
 H   +0.43715359   -0.94510982   -0.32640343
 H   -1.34858797   -0.04881494   -1.64594993
 H   -1.24476931   +2.29751937   -0.77925456
 H   -3.29333064   +1.61027311   -2.10931678
 H   -5.33265318   +2.18175933   -0.93559547
 H   -4.42634939   +2.20227477   +0.66759979
 H   +0.66878053   +0.77944860   -0.36629515
 H   -2.05822575   -0.55575969   -0.12424637
 H   -2.04340746   +1.76937318   +0.69518081
 H   -4.39153907   +4.20196660   -0.39653894
22
 * E =  +8.880 kcal/mol ; (54) 358_173_290_185_246
 C   +0.00000000   +0.00000000   +0.00000000
 C   +0.00000000   +0.00000000   +1.50570166
 O   +1.18533336   +0.00000000   +2.12888380
 O   -0.99757115   +0.02146610   +2.16564012
 C   +2.39481357   -0.03607352   +1.40774696
 H   +3.18059563   +0.06058154   +2.14652651
 H   +2.51819016   -0.98079497   +0.88283627
 H   +2.46989489   +0.78738932   +0.70165265
 C   -1.38818151   -0.16512012   -0.58300921
 C   -1.96503358   -1.55781413   -0.36264466
 C   -3.27760904   -1.72846288   -1.04266252
 C   -4.44123117   -1.90341942   -0.41308430
 H   +0.66624549   -0.78234383   -0.36505286
 H   -2.05585562   +0.57007390   -0.13942344
 H   -2.07278901   -1.73885208   +0.70430627
 H   -3.27544339   -1.65142425   -2.12402751
 H   -5.36151599   -2.04305223   -0.95863250
 H   -4.48282338   -2.02346869   +0.65994663
 H   +0.44174377   +0.94292166   -0.32659185
 H   -1.34057293   +0.04381032   -1.65153352
 H   -1.25964459   -2.29682377   -0.75242415
 H   -5.12950786   +0.02734047   -0.02165583
22
 * E =  +8.915 kcal/mol ; (55) 004_194_086_303_121
 C   +0.00000000   +0.00000000   +0.00000000
 C   +0.00000000   +0.00000000   +1.50750808
 O   +1.18123915   +0.00000000   +2.13486614
 O   -0.99926254   -0.05223351   +2.16457972
 C   +2.39386191   +0.07698985   +1.42217905
 H   +3.17622138   -0.05227598   +2.15975966
 H   +2.47654321   -0.71054725   +0.67689525
 H   +2.51286757   +1.04798138   +0.94681999
 C   -1.35957674   +0.33599942   -0.58357656
 C   -1.58807308   +1.83903173   -0.71831077
 C   -1.44621641   +2.57843212   +0.56530034
 C   -0.57038946   +3.56579180   +0.77019799
 H   +0.31464864   -0.99937623   -0.30684230
 H   -1.44970384   -0.11668381   -1.56885184
 H   -2.59096810   +1.99917430   -1.11811640
 H   -2.10727591   +2.28357107   +1.36974151
 H   -0.47304117   +4.04058831   +1.73400615
 H   +0.14570637   +3.84661963   +0.01006801
 H   +0.75737336   +0.68478500   -0.37876623
 H   -2.12761672   -0.10396709   +0.04824420
 H   -0.88981492   +2.25003332   -1.44892218
 H   -1.54470518   +5.30586645   +0.18168948
22
 * E =  +8.967 kcal/mol ; (56) 001_182_181_178_123
 C   +0.00000000   +0.00000000   +0.00000000
 C   +0.00000000   +0.00000000   +1.50402305
 O   +1.18501728   +0.00000000   +2.12878233
 O   -0.99961742   -0.00493809   +2.16049434
 C   +2.39413722   +0.01712165   +1.40690046
 H   +3.18093254   -0.01510409   +2.15015347
 H   +2.48766126   -0.84894581   +0.75584437
 H   +2.49893665   +0.92770602   +0.82132859
 C   -1.40166628   +0.03953533   -0.56646299
 C   -1.40452210   +0.00282613   -2.08695669
 C   -2.78022231   -0.01040503   -2.65340858
 C   -3.25424388   +0.88382357   -3.52248052
 H   +0.53008957   -0.88846869   -0.34844888
 H   -1.96928607   -0.79948800   -0.16818015
 H   -0.87505170   -0.89382823   -2.42128063
 H   -3.41923711   -0.82811765   -2.34165955
 H   -4.27410699   +0.84457264   -3.87173734
 H   -2.66803713   +1.74173007   -3.81968453
 H   +0.58453047   +0.84965872   -0.35604816
 H   -1.90887454   +0.93481143   -0.21357035
 H   -0.85469295   +0.85577827   -2.48598265
 H   -2.72181715   +0.14161228   -5.40919194
22
 * E =  +8.968 kcal/mol ; (57) 358_177_178_181_241
 C   +0.00000000   +0.00000000   +0.00000000
 C   +0.00000000   +0.00000000   +1.50407436
 O   +1.18529025   +0.00000000   +2.12852216
 O   -0.99927656   +0.00849781   +2.16084688
 C   +2.39397377   -0.03216584   +1.40645692
 H   +3.18128988   +0.02633883   +2.14756044
 H   +2.50221757   -0.95983403   +0.84883514
 H   +2.48255392   +0.81382321   +0.72889551
 C   -1.40024622   -0.06545881   -0.56763230
 C   -1.40196082   -0.01149795   -2.08837161
 C   -2.77884990   -0.05213883   -2.65116347
 C   -3.23904543   -1.00111972   -3.46853582
 H   +0.60145480   -0.83666421   -0.35808812
 H   -1.88702920   -0.97694361   -0.22739804
 H   -0.81809721   -0.83775500   -2.49519155
 H   -3.45367935   +0.73039557   -2.32499258
 H   -4.24128567   -0.96504999   -3.86591052
 H   -2.58842068   -1.77413026   -3.85215958
 H   +0.51201714   +0.90027077   -0.34582003
 H   -1.98739099   +0.75557761   -0.16063391
 H   -0.90902013   +0.90963696   -2.41041390
 H   -3.93797979   -2.51420268   -2.21063701
22
 * E =  +9.096 kcal/mol ; (58) 359_173_293_307_273
 C   +0.00000000   +0.00000000   +0.00000000
 C   +0.00000000   +0.00000000   +1.50385934
 O   +1.18410933   +0.00000000   +2.12889395
 O   -0.99868378   +0.01826521   +2.16394858
 C   +2.39427409   -0.02232071   +1.40728799
 H   +3.17946246   +0.06664474   +2.14764141
 H   +2.52047741   -0.95850556   +0.86820397
 H   +2.46579119   +0.81117439   +0.71282518
 C   -1.38586298   -0.16613130   -0.58885123
 C   -2.02503031   -1.52967544   -0.32401379
 C   -1.14514751   -2.66454251   -0.73021110
 C   -1.11012825   -3.19039579   -1.95600089
 H   +0.66907333   -0.77545426   -0.37335635
 H   -2.03815618   +0.61063353   -0.19625061
 H   -2.96042363   -1.57743478   -0.87928042
 H   -0.45049437   -3.04196696   +0.01068095
 H   -0.45208165   -4.00909316   -2.20265135
 H   -1.81015453   -2.87959533   -2.71923742
 H   +0.43466083   +0.94519597   -0.32928574
 H   -1.30787739   -0.02074091   -1.66544603
 H   -2.27010419   -1.60509925   +0.73238247
 H   +0.28699834   -1.88531408   -2.92246601
22
 * E =  +9.323 kcal/mol ; (59) 000_181_181_069_016
 C   +0.00000000   +0.00000000   +0.00000000
 C   +0.00000000   +0.00000000   +1.50274519
 O   +1.18529694   +0.00000000   +2.12713557
 O   -0.99916903   -0.00031454   +2.16077805
 C   +2.39342059   -0.00621085   +1.40316456
 H   +3.18140507   -0.01306163   +2.14584766
 H   +2.48536509   -0.89375926   +0.78145821
 H   +2.49692682   +0.88360292   +0.78633066
 C   -1.40401006   +0.02054875   -0.56667308
 C   -1.42187541   -0.01501098   -2.08288004
 C   -0.98632329   -1.29400703   -2.71842923
 C   -0.86774033   -2.47827764   -2.11316843
 H   +0.55190109   -0.87027958   -0.35599510
 H   -1.97529815   -0.80867307   -0.15481834
 H   -0.80989748   +0.79840014   -2.47908964
 H   -0.81592793   -1.24851600   -3.78680496
 H   -0.54412750   -3.35013274   -2.65960960
 H   -0.98643399   -2.59404821   -1.04574614
 H   +0.56309008   +0.86618298   -0.35192510
 H   -1.90788804   +0.91878764   -0.21808875
 H   -2.43468927   +0.19872211   -2.43326963
 H   -2.78402862   -3.31170242   -2.19036942
22
 * E =  +9.448 kcal/mol ; (60) 001_187_069_061_114
 C   +0.00000000   +0.00000000   +0.00000000
 C   +0.00000000   +0.00000000   +1.50542270
 O   +1.18368081   +0.00000000   +2.13091254
 O   -0.99897544   -0.02263917   +2.16398110
 C   +2.39501163   +0.02861236   +1.41216753
 H   +3.17856176   -0.07334910   +2.15257368
 H   +2.46580278   -0.79489581   +0.70575216
 H   +2.52562415   +0.97273486   +0.88790103
 C   -1.38922344   +0.17272577   -0.58173769
 C   -2.00290527   +1.55217762   -0.35687668
 C   -1.23019016   +2.66388278   -0.97679330
 C   -1.66867086   +3.42230458   -1.98431144
 H   +0.42515506   -0.95121852   -0.32476318
 H   -1.33978551   -0.02485942   -1.65142742
 H   -2.09538254   +1.71815633   +0.71641199
 H   -0.26063872   +2.89250504   -0.55009340
 H   -1.05366922   +4.19384218   -2.42082341
 H   -2.61260296   +3.21647132   -2.46895544
 H   +0.68182667   +0.76415429   -0.37108713
 H   -2.04458235   -0.57424978   -0.13975092
 H   -3.01250629   +1.55161623   -0.76426065
 H   -2.72926899   +4.98267940   -1.08857337
22
 * E =  +9.550 kcal/mol ; (61) 002_183_186_300_254
 C   +0.00000000   +0.00000000   +0.00000000
 C   +0.00000000   +0.00000000   +1.50428922
 O   +1.18558157   +0.00000000   +2.12820784
 O   -0.99864139   -0.00883458   +2.16213972
 C   +2.39388859   +0.03856161   +1.40604921
 H   +3.18147101   -0.01786400   +2.14706358
 H   +2.48644535   -0.80601821   +0.72720128
 H   +2.49816418   +0.96782189   +0.85034422
 C   -1.40384285   +0.06750286   -0.56086659
 C   -1.45441380   -0.07723108   -2.07868552
 C   -0.69893899   +0.98265566   -2.80388521
 C   -1.26493659   +1.99400843   -3.46602503
 H   +0.50928557   -0.90295584   -0.34445817
 H   -2.00297741   -0.71414969   -0.10004443
 H   -2.49539669   -0.05681762   -2.39639588
 H   +0.38242234   +0.94557825   -2.74670097
 H   -0.67281615   +2.72809641   -3.98986156
 H   -2.33663641   +2.04715685   -3.59574058
 H   +0.60448595   +0.83587366   -0.35219827
 H   -1.85869785   +1.01152638   -0.26779692
 H   -1.06010481   -1.05755685   -2.35544475
 H   -1.57079093   +3.47654484   -2.01787119
22
 * E =  +9.593 kcal/mol ; (62) 359_178_175_062_116
 C   +0.00000000   +0.00000000   +0.00000000
 C   +0.00000000   +0.00000000   +1.50431534
 O   +1.18545290   +0.00000000   +2.12832123
 O   -0.99887544   +0.00503481   +2.16190329
 C   +2.39408882   -0.02424250   +1.40603634
 H   +3.18132599   +0.01392597   +2.14854976
 H   +2.49769402   -0.94035588   +0.82884481
 H   +2.48812214   +0.83581265   +0.74711514
 C   -1.40527857   -0.03700379   -0.56048617
 C   -1.45346268   +0.09037285   -2.07869290
 C   -0.76002265   -1.01078143   -2.80340900
 C   -1.36728632   -1.88527302   -3.60822499
 H   +0.58711668   -0.84985691   -0.34866025
 H   -1.88832152   -0.96151710   -0.25126477
 H   -1.00716958   +1.04551656   -2.36773162
 H   +0.31528589   -1.07793829   -2.68835810
 H   -0.82489247   -2.68914202   -4.08098624
 H   -2.44169005   -1.88463712   -3.72529146
 H   +0.52899626   +0.89001555   -0.34749851
 H   -1.98037864   +0.76869033   -0.11030330
 H   -2.49404712   +0.12543134   -2.39646206
 H   -1.38525322   -0.97321943   -5.49300344
22
 * E = +10.157 kcal/mol ; (63) 355_268_181_060_235
 C   +0.00000000   +0.00000000   +0.00000000
 C   +0.00000000   +0.00000000   +1.50308614
 O   +1.17223339   +0.00000000   +2.15278508
 O   -1.01037497   +0.05251799   +2.14233378
 C   +2.39739143   -0.10090979   +1.46553118
 H   +3.16712982   +0.02849340   +2.21644737
 H   +2.51433715   -1.07912071   +1.00467899
 H   +2.50537411   +0.67578388   +0.71197643
 C   -0.04688433   +1.42993485   -0.52810094
 C   -0.07968792   +1.48625050   -2.04984374
 C   -1.26678811   +0.79944855   -2.62934394
 C   -1.21476537   -0.17509143   -3.53926832
 H   -0.89546750   -0.53061722   -0.30873968
 H   -0.93042985   +1.91924640   -0.11996489
 H   +0.83113808   +1.05023673   -2.46106991
 H   -2.23341209   +1.11215667   -2.25099830
 H   -2.11208734   -0.60587626   -3.95516955
 H   -0.27548283   -0.48417755   -3.97567935
 H   +0.85357601   -0.52784952   -0.41854886
 H   +0.81270999   +1.99602937   -0.16898687
 H   -0.09040980   +2.53524690   -2.35152304
 H   -1.02747694   -1.96195129   -2.44379887
22
 * E = +10.515 kcal/mol ; (64) 009_086_064_181_246
 C   +0.00000000   +0.00000000   +0.00000000
 C   +0.00000000   +0.00000000   +1.50326045
 O   +1.17453564   +0.00000000   +2.14801536
 O   -1.00761621   -0.05798923   +2.14757961
 C   +2.39425406   +0.18292731   +1.46629583
 H   +3.16910579   +0.05763304   +2.21249574
 H   +2.53730757   -0.55415236   +0.68034451
 H   +2.46581049   +1.18452070   +1.04821656
 C   +0.08943009   -1.42160794   -0.55565897
 C   -1.11454831   -2.28393744   -0.19848639
 C   -0.97767106   -3.66216352   -0.74132977
 C   -1.76069558   -4.18949786   -1.68403024
 H   +0.80674155   +0.60692253   -0.40178596
 H   +0.17569050   -1.36159882   -1.63932029
 H   -2.02121012   -1.82079184   -0.58621678
 H   -0.14774183   -4.24862276   -0.36432623
 H   -1.62621760   -5.20346658   -2.02697675
 H   -2.62612310   -3.65847648   -2.05410318
 H   -0.94031459   +0.45000912   -0.30418208
 H   +0.99996946   -1.90762325   -0.20199867
 H   -1.22565482   -2.32088633   +0.88563137
 H   -0.87379890   -3.57300867   -3.49171346
22
 * E = +10.587 kcal/mol ; (65) 354_270_183_177_122
 C   +0.00000000   +0.00000000   +0.00000000
 C   +0.00000000   +0.00000000   +1.50397398
 O   +1.17206695   +0.00000000   +2.15179754
 O   -1.01095632   +0.05084361   +2.14219860
 C   +2.39673798   -0.11503800   +1.46499040
 H   +3.16730167   +0.01873569   +2.21416077
 H   +2.50777427   -1.09973860   +1.01648976
 H   +2.50874538   +0.65198042   +0.70256024
 C   -0.00460244   +1.42787139   -0.53523281
 C   -0.08725606   +1.46650709   -2.05378444
 C   -0.15275115   +2.85505426   -2.58405380
 C   +0.71476270   +3.37849735   -3.45239551
 H   -0.91437163   -0.50199633   -0.30217631
 H   -0.85362050   +1.95685294   -0.10437503
 H   -0.97936217   +0.91912370   -2.36789288
 H   -0.98730058   +3.45870146   -2.24775282
 H   +0.63918592   +4.40508470   -3.77492285
 H   +1.58654660   +2.82729333   -3.77524420
 H   +0.83903320   -0.55507598   -0.41279810
 H   +0.88867470   +1.96131682   -0.20982837
 H   +0.76770351   +0.94800726   -2.48817785
 H   -0.02584165   +2.87717572   -5.33713584
22
 * E = +10.711 kcal/mol ; (66) 008_086_061_179_002
 C   +0.00000000   +0.00000000   +0.00000000
 C   +0.00000000   +0.00000000   +1.50405882
 O   +1.17213705   +0.00000000   +2.15098337
 O   -1.00982207   -0.05234353   +2.14577882
 C   +2.39524615   +0.16468501   +1.47042348
 H   +3.16702632   +0.03563918   +2.21909511
 H   +2.53173990   -0.57973404   +0.69058534
 H   +2.47853309   +1.16276617   +1.04612106
 C   +0.09016281   -1.41802398   -0.56354351
 C   -1.07422009   -2.29570414   -0.15508430
 C   -1.04105087   -3.67783701   -0.70924199
 C   -0.08401573   -4.19845410   -1.48120266
 H   +0.80523915   +0.60970113   -0.40086233
 H   +0.12904234   -1.34353140   -1.64973760
 H   -2.01252126   -1.81959636   -0.44898963
 H   -1.86274133   -4.31585058   -0.40988433
 H   -0.15935507   -5.20866227   -1.85136534
 H   +0.73601681   -3.60709935   -1.85972049
 H   -0.94136659   +0.45070810   -0.30001805
 H   +1.02285641   -1.89062783   -0.25356021
 H   -1.13024175   -2.35972196   +0.93310574
 H   +1.36348447   -4.89941548   -0.14288244
22
 * E = +10.748 kcal/mol ; (67) 006_089_177_178_122
 C   +0.00000000   +0.00000000   +0.00000000
 C   +0.00000000   +0.00000000   +1.50391171
 O   +1.17310431   +0.00000000   +2.15092822
 O   -1.00989724   -0.05193701   +2.14339359
 C   +2.39630509   +0.13184825   +1.46503816
 H   +3.16838971   -0.00029344   +2.21295780
 H   +2.51578238   -0.62792539   +0.69645893
 H   +2.49787495   +1.12085522   +1.02380511
 C   +0.01290166   -1.42722655   -0.53718247
 C   -0.05648128   -1.46303855   -2.05649049
 C   -0.00622476   -2.84836879   -2.59717923
 C   -0.94308550   -3.39500263   -3.37388872
 H   +0.83253292   +0.56529486   -0.41240608
 H   +0.91046367   -1.94924260   -0.20194292
 H   +0.78075782   -0.88890517   -2.46234608
 H   +0.87486351   -3.42963751   -2.35158733
 H   -0.87171107   -4.41844904   -3.70716911
 H   -1.85906227   -2.86884560   -3.60165646
 H   -0.91986837   +0.49165389   -0.30210830
 H   -0.83284784   -1.96875924   -0.11784730
 H   -0.96715058   -0.96936116   -2.39473722
 H   -0.41007092   -2.86843446   -5.32649643
22
 * E = +10.750 kcal/mol ; (68) 353_271_183_181_244
 C   +0.00000000   +0.00000000   +0.00000000
 C   +0.00000000   +0.00000000   +1.50392993
 O   +1.17374146   +0.00000000   +2.15031911
 O   -1.00934751   +0.05095857   +2.14411273
 C   +2.39604218   -0.13616022   +1.46394101
 H   +3.16906659   -0.00277170   +2.21068672
 H   +2.49556462   -1.12693391   +1.02611658
 H   +2.51629212   +0.62061642   +0.69253696
 C   +0.02310299   +1.42610572   -0.53978014
 C   -0.04604057   +1.45810352   -2.06017396
 C   +0.00299096   +2.84556103   -2.59581590
 C   -0.98579893   +3.43321463   -3.27227852
 H   -0.92310195   -0.48571547   -0.30176568
 H   -0.81940591   +1.97554064   -0.12409597
 H   -0.95905025   +0.96653894   -2.39516927
 H   +0.89399935   +3.41895263   -2.36836984
 H   -0.88655044   +4.43606714   -3.65712179
 H   -1.87185126   +2.88479214   -3.55855451
 H   +0.82902702   -0.57166903   -0.41107335
 H   +0.92418303   +1.94268114   -0.20592411
 H   +0.78968685   +0.88181886   -2.46463747
 H   -2.22363497   +4.25688067   -1.81208361
22
 * E = +10.774 kcal/mol ; (69) 008_086_062_176_123
 C   +0.00000000   +0.00000000   +0.00000000
 C   +0.00000000   +0.00000000   +1.50383724
 O   +1.17380645   +0.00000000   +2.14943087
 O   -1.00846159   -0.05505388   +2.14672695
 C   +2.39474779   +0.17628676   +1.46823462
 H   +3.16824964   +0.05477224   +2.21645378
 H   +2.53791935   -0.56670475   +0.68803443
 H   +2.46873660   +1.17497262   +1.04360322
 C   +0.09133692   -1.42011403   -0.55807529
 C   -1.08858415   -2.29917850   -0.16771026
 C   -1.01331613   -3.64348314   -0.80112433
 C   -1.01609222   -4.79920417   -0.13370141
 H   +0.80494054   +0.60962679   -0.40160734
 H   +0.14788168   -1.35055990   -1.64410457
 H   -2.01044938   -1.80186916   -0.47851052
 H   -0.98277806   -3.66634467   -1.88455522
 H   -0.92246135   -5.74487680   -0.64441991
 H   -0.99985588   -4.82133620   +0.94655717
 H   -0.94222581   +0.44791867   -0.30162578
 H   +1.01559776   -1.89889239   -0.23434200
 H   -1.14738512   -2.39869451   +0.91419622
 H   -3.02576018   -5.30102176   +0.10005252
22
 * E = +10.835 kcal/mol ; (70) 351_274_296_178_121
 C   +0.00000000   +0.00000000   +0.00000000
 C   +0.00000000   +0.00000000   +1.50335953
 O   +1.17508415   +0.00000000   +2.14736982
 O   -1.00723225   +0.05713194   +2.14805777
 C   +2.39397522   -0.18595463   +1.46523355
 H   +3.16953855   -0.06091922   +2.21074365
 H   +2.46357179   -1.18828880   +1.04852624
 H   +2.53791746   +0.54969281   +0.67809814
 C   +0.09563262   +1.42084037   -0.55688506
 C   -1.10717617   +2.28648492   -0.20788442
 C   -0.96359328   +3.67298589   -0.72766627
 C   -1.80901820   +4.26054029   -1.57694510
 H   -0.94197265   -0.44655851   -0.30414144
 H   +1.00538492   +1.90498504   -0.19854531
 H   -1.23109941   +2.31323191   +0.87580610
 H   -0.11934705   +4.24161824   -0.35498893
 H   -1.63286850   +5.25803594   -1.94804016
 H   -2.63727789   +3.71674427   -2.00838657
 H   +0.80460145   -0.61060451   -0.40060608
 H   +0.18965154   +1.35780326   -1.63972650
 H   -2.01292674   +1.83239437   -0.60838734
 H   -3.28118812   +5.13013706   -0.39030547
22
 * E = +10.912 kcal/mol ; (71) 006_089_178_180_005
 C   +0.00000000   +0.00000000   +0.00000000
 C   +0.00000000   +0.00000000   +1.50408516
 O   +1.17325082   +0.00000000   +2.15072832
 O   -1.00974609   -0.05134673   +2.14373614
 C   +2.39668532   +0.12998599   +1.46456063
 H   +3.16855648   -0.00293276   +2.21255901
 H   +2.51526928   -0.63003470   +0.69615405
 H   +2.49946103   +1.11893326   +1.02343566
 C   +0.01846591   -1.42708790   -0.53728714
 C   -0.03608924   -1.45619487   -2.04972279
 C   -0.02295651   -2.81483231   -2.66247100
 C   -0.05537503   -3.97502484   -2.00266803
 H   +0.83115082   +0.56876273   -0.41048502
 H   +0.91324726   -1.94858187   -0.19461239
 H   +0.79814538   -0.88150232   -2.46006920
 H   -0.02881936   -2.83698545   -3.74479371
 H   -0.01511437   -4.91363966   -2.53234206
 H   -0.00457184   -4.02582852   -0.92551205
 H   -0.92121567   +0.48937271   -0.30166906
 H   -0.83280821   -1.96491233   -0.12297528
 H   -0.93489829   -0.93402094   -2.38877890
 H   -2.07249688   -4.37814404   -1.70323620
22
 * E = +11.328 kcal/mol ; (72) 353_076_048_279_257
 C   +0.00000000   +0.00000000   +0.00000000
 C   +0.00000000   +0.00000000   +1.50511171
 O   +1.16036345   +0.00000000   +2.16837644
 O   -1.01802538   -0.00052805   +2.13816246
 C   +2.40568699   -0.15304168   +1.52541881
 H   +3.14942156   +0.19413926   +2.23228561
 H   +2.59026457   -1.20060198   +1.29931856
 H   +2.47723077   +0.44100493   +0.61830563
 C   +0.33964805   -1.33912268   -0.65241484
 C   -0.42516683   -2.53895349   -0.08952513
 C   +0.15156703   -3.06440145   +1.18323118
 C   +0.89213934   -4.17165731   +1.25345559
 H   +0.66506480   +0.77342786   -0.38061812
 H   +0.10534094   -1.23840564   -1.71075762
 H   -0.41075386   -3.33456192   -0.83252032
 H   -0.02087932   -2.49565188   +2.08751506
 H   +1.28888548   -4.52482235   +2.19261816
 H   +1.04041176   -4.80519652   +0.38989445
 H   -1.01322797   +0.28042394   -0.26981457
 H   +1.40704037   -1.54443526   -0.59653271
 H   -1.46849917   -2.25978259   +0.06412558
 H   +2.88760093   -3.48539770   +0.75432057
22
 * E = +11.507 kcal/mol ; (73) 007_088_183_298_249
 C   +0.00000000   +0.00000000   +0.00000000
 C   +0.00000000   +0.00000000   +1.50371963
 O   +1.17548914   +0.00000000   +2.14817512
 O   -1.00762447   -0.05344086   +2.14609155
 C   +2.39606771   +0.15001277   +1.46172758
 H   +3.17068570   +0.01859477   +2.20720720
 H   +2.52229808   -0.60086717   +0.68545133
 H   +2.48735530   +1.14414372   +1.02968211
 C   +0.05098014   -1.43033438   -0.53067200
 C   +0.13420547   -1.50269807   -2.05227052
 C   -1.04476242   -0.90731302   -2.74058141
 C   -1.94929732   -1.61142895   -3.42432437
 H   +0.82335169   +0.58241782   -0.40869432
 H   +0.91029426   -1.95236685   -0.10923447
 H   +0.23389104   -2.54537272   -2.34952228
 H   -1.18978836   +0.16092140   -2.63808222
 H   -2.77632233   -1.13205690   -3.92422836
 H   -1.81946906   -2.67009888   -3.59891459
 H   -0.92902397   +0.47386331   -0.29935915
 H   -0.83546162   -1.95998330   -0.18667056
 H   +1.04330589   -0.99265700   -2.37967217
 H   -3.33996175   -2.23515888   -2.00305648
22
 * E = +12.188 kcal/mol ; (74) 352_275_307_086_113
 C   +0.00000000   +0.00000000   +0.00000000
 C   +0.00000000   +0.00000000   +1.50284752
 O   +1.16810469   +0.00000000   +2.15512351
 O   -1.01366205   +0.04730864   +2.13995393
 C   +2.39246266   -0.16759197   +1.47676618
 H   +3.16320840   -0.04250509   +2.22706612
 H   +2.47228124   -1.16552566   +1.05157751
 H   +2.53202531   +0.57794555   +0.69913349
 C   +0.12925151   +1.39865276   -0.60638425
 C   -0.89304019   +2.41958052   -0.09983836
 C   -0.49072056   +3.11460027   +1.15743871
 C   -0.19662759   +4.41555215   +1.21934913
 H   -0.95865587   -0.42141221   -0.28688047
 H   +1.13211238   +1.79545387   -0.45449050
 H   -1.84989051   +1.91737464   +0.05431610
 H   -0.47527380   +2.53094181   +2.06772562
 H   +0.12751128   +4.87513691   +2.14005180
 H   -0.16891483   +5.02958104   +0.32987077
 H   +0.78054098   -0.64405157   -0.39799218
 H   +0.00832399   +1.28203942   -1.68194160
 H   -1.04624187   +3.16940489   -0.87418503
 H   -2.01814538   +5.38533845   +1.54650601
