22
 * E =  +0.000 kcal/mol ; (1) 219_066_068_188_181
 C   +0.00000000   +0.00000000   +0.00000000
 C   +0.00000000   +0.00000000   +1.33074095
 C   +1.20327910   +0.00000000   +2.16714824
 C   +1.15112002   -0.85171327   +3.41269689
 C   +1.06066249   -2.33508521   +3.10841453
 C   +2.30806145   -2.87707992   +2.48120928
 O   +2.14419356   -4.13085912   +2.06850357
 C   +3.28611552   -4.73344768   +1.48519642
 O   +3.34640356   -2.28252254   +2.36711170
 H   +2.98476657   -5.73626223   +1.21208634
 H   -0.91877640   +0.02503051   -0.56491671
 H   +4.10547864   -4.76052595   +2.19669036
 H   +3.60105986   -4.17686279   +0.60814257
 H   +0.88830735   -2.90940600   +4.01880120
 H   +0.22474118   -2.55952107   +2.44776162
 H   +0.28568435   -0.56673292   +4.01035441
 H   +2.03678729   -0.66171819   +4.01471424
 H   +1.34383722   +1.15901344   +2.59982690
 H   +2.11845622   -0.14511385   +1.59989499
 H   -0.95012680   +0.02491048   +1.85359426
 H   +0.92352681   -0.02355327   -0.56071731
 H   +1.51593669   +2.08000591   +3.03585566
22
 * E =  +0.124 kcal/mol ; (2) 219_188_291_173_179
 C   +0.00000000   +0.00000000   +0.00000000
 C   +0.00000000   +0.00000000   +1.33004779
 C   +1.20497515   +0.00000000   +2.16296858
 C   +1.15886451   -0.85916982   +3.40241078
 C   +2.35403905   -0.66688660   +4.31161965
 C   +3.62914312   -1.18522818   +3.72065781
 O   +4.68067978   -0.86594818   +4.46963469
 C   +5.93031643   -1.33910386   +3.99819801
 O   +3.71889110   -1.82562519   +2.70751291
 H   +6.66599925   -0.99437106   +4.71300061
 H   -0.91950085   +0.01902696   -0.56382759
 H   +6.13895486   -0.93791513   +3.01144981
 H   +5.92887068   -2.42321622   +3.94350340
 H   +2.49843272   +0.38193193   +4.56689991
 H   +2.21130885   -1.18763716   +5.25802607
 H   +1.10087117   -1.90580466   +3.10229210
 H   +0.25101689   -0.63735480   +3.96257559
 H   +1.33426177   +1.16265527   +2.59826022
 H   +2.11513660   -0.14337248   +1.58684914
 H   -0.94850233   +0.02050198   +1.85468718
 H   +0.92265542   -0.02466854   -0.56174550
 H   +1.48481512   +2.09354194   +3.03310133
22
 * E =  +0.256 kcal/mol ; (3) 008_183_291_174_179
 C   +0.00000000   +0.00000000   +0.00000000
 C   +0.00000000   +0.00000000   +1.33060315
 C   +1.18895310   +0.00000000   +2.19035975
 C   +2.53301856   +0.18976254   +1.54090935
 C   +3.67969659   +0.10400400   +2.52588104
 C   +3.72683350   +1.26204875   +3.47492030
 O   +4.65765312   +1.09087336   +4.40938691
 C   +4.79023079   +2.15244856   +5.33850725
 O   +3.03375410   +2.24212422   +3.41492796
 H   +5.57897118   +1.85502103   +6.01705829
 H   -0.92423284   -0.01076665   -0.55588060
 H   +3.85968398   +2.30281077   +5.87670583
 H   +5.05270063   +3.07313458   +4.82693132
 H   +3.63724578   -0.81403231   +3.11060476
 H   +4.63812122   +0.08200825   +2.00821460
 H   +2.55416373   +1.16070858   +1.04489125
 H   +2.67775786   -0.56745800   +0.77181141
 H   +1.24059655   -1.13131805   +2.71020037
 H   +1.05947708   +0.62839701   +3.06816471
 H   -0.95104031   -0.01646030   +1.84735143
 H   +0.91311724   +0.02553230   -0.57555117
 H   +1.40166499   -2.07259599   +3.12471890
22
 * E =  +0.327 kcal/mol ; (4) 219_069_182_184_181
 C   +0.00000000   +0.00000000   +0.00000000
 C   +0.00000000   +0.00000000   +1.33052798
 C   +1.20145252   +0.00000000   +2.16982013
 C   +1.14787840   -0.84700689   +3.41675630
 C   +1.12592951   -2.32637344   +3.09058446
 C   +1.02985962   -3.18282106   +4.31402854
 O   +1.10653881   -4.47732762   +4.01350404
 C   +1.01076886   -5.36342737   +5.11489140
 O   +0.89507467   -2.77930936   +5.43733659
 H   +1.08897682   -6.36016461   +4.70070020
 H   -0.91904327   +0.02492889   -0.56420878
 H   +0.06055239   -5.23433446   +5.62356915
 H   +1.81446230   -5.17864616   +5.82073666
 H   +0.28350840   -2.57441703   +2.44463473
 H   +2.01537562   -2.62660347   +2.53758262
 H   +0.26383547   -0.59533867   +4.00054063
 H   +2.00205778   -0.62775357   +4.05386839
 H   +1.35080898   +1.16280696   +2.59102664
 H   +2.11231421   -0.14570449   +1.59166778
 H   -0.94862147   +0.02597237   +1.85530049
 H   +0.92258220   -0.02479813   -0.56238738
 H   +1.54474291   +2.08853228   +3.00507273
22
 * E =  +0.338 kcal/mol ; (5) 015_069_069_186_181
 C   +0.00000000   +0.00000000   +0.00000000
 C   +0.00000000   +0.00000000   +1.33136694
 C   +1.18480706   +0.00000000   +2.20054572
 C   +2.52511195   +0.33238449   +1.59515143
 C   +2.65021764   +1.78484235   +1.17380914
 C   +2.68311331   +2.72589885   +2.33852013
 O   +2.65912441   +3.99534514   +1.94193325
 C   +2.71362753   +4.95867040   +2.97942190
 O   +2.73985213   +2.40473210   +3.49544769
 H   +2.68818005   +5.92315665   +2.48934378
 H   -0.92344104   -0.02746231   -0.55660276
 H   +3.62761893   +4.84564086   +3.55399608
 H   +1.86400723   +4.84610950   +3.64551537
 H   +3.56852175   +1.94841494   +0.60974869
 H   +1.83625754   +2.08767693   +0.51800750
 H   +2.71140570   -0.30465945   +0.73214504
 H   +3.29984878   +0.10996401   +2.32561417
 H   +1.30478323   -1.15696903   +2.61535879
 H   +1.01800466   +0.53105884   +3.13374581
 H   -0.95382320   -0.03273505   +1.84256066
 H   +0.91293981   +0.02927833   -0.57691401
 H   +1.53596244   -2.12249202   +2.95818404
22
 * E =  +0.354 kcal/mol ; (6) 218_185_179_177_179
 C   +0.00000000   +0.00000000   +0.00000000
 C   +0.00000000   +0.00000000   +1.32996285
 C   +1.20457168   +0.00000000   +2.16416853
 C   +1.15102893   -0.83744002   +3.41637985
 C   +2.38815014   -0.67508395   +4.27049864
 C   +2.32267617   -1.47787824   +5.53127135
 O   +3.44731793   -1.37722438   +6.23563330
 C   +3.46712187   -2.09901086   +7.45462218
 O   +1.38371923   -2.13619124   +5.88890498
 H   +4.43856656   -1.91244081   +7.89350848
 H   -0.91945668   +0.01888915   -0.56366159
 H   +3.32845836   -3.15949974   +7.26909122
 H   +2.67714446   -1.75182585   +8.11318874
 H   +3.28879138   -0.96888508   +3.73210869
 H   +2.53872454   +0.36790865   +4.54977521
 H   +1.02765126   -1.88775733   +3.15042274
 H   +0.27050966   -0.57581204   +4.00134816
 H   +1.35545770   +1.16698636   +2.57590647
 H   +2.11298476   -0.15164582   +1.58355592
 H   -0.94726576   +0.02072887   +1.85587461
 H   +0.92212615   -0.02178662   -0.56322285
 H   +1.53079158   +2.10506718   +2.98801977
22
 * E =  +0.357 kcal/mol ; (7) 219_070_282_154_178
 C   +0.00000000   +0.00000000   +0.00000000
 C   +0.00000000   +0.00000000   +1.33101831
 C   +1.21211431   +0.00000000   +2.15547294
 C   +1.20400004   -0.85082234   +3.40304477
 C   +1.21619390   -2.34001431   +3.10281234
 C   -0.12376577   -2.86234392   +2.68066487
 O   -0.01653005   -3.94074315   +1.91163586
 C   -1.24366950   -4.52447723   +1.51025128
 O   -1.18141899   -2.40288541   +3.01998921
 H   -0.97965456   -5.38286174   +0.90648221
 H   -0.91987796   +0.02593731   -0.56302747
 H   -1.82608918   -3.81443375   +0.93176320
 H   -1.82043338   -4.82904093   +2.37793191
 H   +1.95297165   -2.59812470   +2.34599872
 H   +1.48472200   -2.90012591   +3.99961424
 H   +0.32419471   -0.62205229   +4.00217046
 H   +2.07740703   -0.60443665   +4.00339934
 H   +1.36069638   +1.15550573   +2.58294675
 H   +2.11514551   -0.13676860   +1.56219225
 H   -0.94278385   +0.01550474   +1.86306031
 H   +0.92187350   -0.02721969   -0.56385561
 H   +1.56956951   +2.07897272   +3.01639686
22
 * E =  +0.443 kcal/mol ; (8) 008_181_179_178_180
 C   +0.00000000   +0.00000000   +0.00000000
 C   +0.00000000   +0.00000000   +1.33047001
 C   +1.19437471   +0.00000000   +2.18381242
 C   +2.53303268   +0.19158392   +1.52628670
 C   +3.66733553   +0.14830344   +2.52520021
 C   +5.00644030   +0.31001893   +1.87755687
 O   +5.98862570   +0.30889450   +2.77557581
 C   +7.29537785   +0.45027454   +2.24668921
 O   +5.19918791   +0.42647274   +0.69765175
 H   +7.96322771   +0.42983539   +3.09797525
 H   -0.92446699   -0.01369721   -0.55547033
 H   +7.38749496   +1.38976425   +1.71080186
 H   +7.51864337   -0.36528741   +1.56603001
 H   +3.56634316   +0.92710307   +3.28082085
 H   +3.67522753   -0.79470705   +3.07201445
 H   +2.55080332   +1.14318509   +0.99372070
 H   +2.69272509   -0.57526705   +0.77041581
 H   +1.24974740   -1.12777776   +2.70950643
 H   +1.06330312   +0.61963434   +3.06989265
 H   -0.94946143   -0.01972663   +1.85001436
 H   +0.91397764   +0.02424420   -0.57432698
 H   +1.41166000   -2.06415283   +3.13480136
22
 * E =  +0.686 kcal/mol ; (9) 015_071_183_188_181
 C   +0.00000000   +0.00000000   +0.00000000
 C   +0.00000000   +0.00000000   +1.33105810
 C   +1.18953366   +0.00000000   +2.19456299
 C   +2.52532978   +0.33493179   +1.58390841
 C   +2.63649792   +1.80180325   +1.21845270
 C   +3.93361061   +2.12823158   +0.54793652
 O   +4.08564782   +3.44079474   +0.38600187
 C   +5.28021173   +3.83802826   -0.26402366
 O   +4.74954977   +1.32610751   +0.18187955
 H   +5.24492403   +4.91849295   -0.31410218
 H   -0.92399229   -0.02861702   -0.55555814
 H   +5.32951521   +3.41054328   -1.26061559
 H   +6.14640785   +3.50946686   +0.30167190
 H   +1.83418315   +2.10052359   +0.54392264
 H   +2.53714749   +2.44077783   +2.09480703
 H   +2.70756676   -0.27470820   +0.70163506
 H   +3.31677641   +0.07949845   +2.28570151
 H   +1.30902985   -1.15643447   +2.61811668
 H   +1.01266954   +0.53238002   +3.12760453
 H   -0.95234134   -0.03406671   +1.84467861
 H   +0.91300547   +0.02831542   -0.57666887
 H   +1.53097544   -2.11152687   +2.98484865
22
 * E =  +1.051 kcal/mol ; (10) 220_302_187_183_181
 C   +0.00000000   +0.00000000   +0.00000000
 C   +0.00000000   +0.00000000   +1.33063970
 C   +1.21110256   +0.00000000   +2.15661574
 C   +1.22788773   -0.85289097   +3.40296379
 C   +0.11833306   -0.52006604   +4.37704542
 C   +0.25878615   -1.25888776   +5.67132725
 O   -0.76327031   -1.01282265   +6.48746464
 C   -0.70644645   -1.66215236   +7.74547145
 O   +1.16949288   -1.98498654   +5.96435329
 H   -1.59989835   -1.35916500   +8.27561884
 H   -0.91899873   +0.02254597   -0.56434987
 H   +0.18227103   -1.35750155   +8.28921789
 H   -0.68602756   -2.73955470   +7.61491462
 H   +0.10932756   +0.54647793   +4.60609994
 H   -0.86830855   -0.74735214   +3.97741147
 H   +2.18333639   -0.72857727   +3.90788586
 H   +1.17013291   -1.90670541   +3.12886181
 H   +1.36002490   +1.15809003   +2.58566604
 H   +2.10887351   -0.13322187   +1.55799940
 H   -0.95158595   +0.03115594   +1.84659455
 H   +0.92252503   -0.02518953   -0.56248475
 H   +1.55764009   +2.07826472   +3.03307866
22
 * E =  +1.069 kcal/mol ; (11) 220_195_081_206_182
 C   +0.00000000   +0.00000000   +0.00000000
 C   +0.00000000   +0.00000000   +1.33047342
 C   +1.20324191   +0.00000000   +2.16481442
 C   +1.16230508   -0.85959135   +3.40504531
 C   +2.26402553   -0.53621689   +4.39586636
 C   +1.93619695   +0.66117934   +5.23793066
 O   +3.02978121   +1.27384388   +5.67860349
 C   +2.79992766   +2.39723185   +6.51137685
 O   +0.82467301   +1.01719221   +5.52285401
 H   +3.77903432   +2.77187756   +6.77982718
 H   -0.91946469   +0.02423127   -0.56351198
 H   +2.24490578   +2.10521831   +7.39734518
 H   +2.23467681   +3.15236774   +5.97429630
 H   +2.40365105   -1.36353380   +5.09196945
 H   +3.22344663   -0.37767802   +3.90889021
 H   +1.24155608   -1.90446772   +3.10373644
 H   +0.20226926   -0.74338055   +3.90440666
 H   +1.36209810   +1.17626546   +2.56291052
 H   +2.11309959   -0.14391192   +1.58438190
 H   -0.94615613   +0.02685069   +1.85771545
 H   +0.92197910   -0.02555719   -0.56333488
 H   +1.60523618   +2.12946048   +2.87357655
22
 * E =  +1.224 kcal/mol ; (12) 222_079_298_311_178
 C   +0.00000000   +0.00000000   +0.00000000
 C   +0.00000000   +0.00000000   +1.33019670
 C   +1.20416849   +0.00000000   +2.16727331
 C   +1.19829035   -0.90357565   +3.37814837
 C   +1.48655184   -2.36002898   +3.03725917
 C   +0.48047870   -2.99451849   +2.12601405
 O   -0.76755210   -2.78808964   +2.54474251
 C   -1.77801686   -3.32323979   +1.70975657
 O   +0.74198641   -3.63774287   +1.14666448
 H   -2.71869628   -3.08125010   +2.18745424
 H   -0.91949999   +0.02587388   -0.56379321
 H   -1.66267527   -4.39813756   +1.61359053
 H   -1.72131022   -2.87283474   +0.72281168
 H   +2.45565693   -2.46795724   +2.55955704
 H   +1.50465670   -2.94790497   +3.95508224
 H   +0.23725565   -0.83213456   +3.88456091
 H   +1.95618272   -0.56558188   +4.08304825
 H   +1.30718030   +1.14242879   +2.64107899
 H   +2.11817092   -0.08709914   +1.58217714
 H   -0.94556039   +0.01861699   +1.85929769
 H   +0.92130317   -0.03491155   -0.56329345
 H   +1.47427676   +2.05350870   +3.11390500
22
 * E =  +1.288 kcal/mol ; (13) 220_068_063_033_178
 C   +0.00000000   +0.00000000   +0.00000000
 C   +0.00000000   +0.00000000   +1.33022405
 C   +1.20259790   +0.00000000   +2.16773784
 C   +1.16052619   -0.86584760   +3.40331005
 C   +1.14065013   -2.35083405   +3.07655228
 C   +2.36057075   -2.86099572   +2.36915657
 O   +3.46878096   -2.21949943   +2.73844281
 C   +4.66675088   -2.68765112   +2.14423644
 O   +2.36770206   -3.76700688   +1.58124465
 H   +5.45751725   -2.06287181   +2.53867348
 H   -0.91905952   +0.02056724   -0.56431469
 H   +4.61232517   -2.60080123   +1.06362774
 H   +4.83560416   -3.72812705   +2.40327730
 H   +1.05576619   -2.93065091   +3.99655245
 H   +0.28875039   -2.61484689   +2.45642241
 H   +0.26785548   -0.62732507   +3.98086764
 H   +2.01871251   -0.64378302   +4.03275933
 H   +1.34211492   +1.15579077   +2.60930139
 H   +2.11701545   -0.13115188   +1.59246149
 H   -0.94895413   +0.02248358   +1.85456971
 H   +0.92238048   -0.02658449   -0.56229608
 H   +1.52391243   +2.07365030   +3.04930912
22
 * E =  +1.316 kcal/mol ; (14) 218_068_180_304_180
 C   +0.00000000   +0.00000000   +0.00000000
 C   +0.00000000   +0.00000000   +1.33031560
 C   +1.20310289   +0.00000000   +2.16720233
 C   +1.15074785   -0.83685392   +3.42097783
 C   +1.09519785   -2.32614784   +3.10236446
 C   +1.05035895   -3.18312803   +4.32869743
 O   +2.08246913   -2.94339025   +5.13679018
 C   +2.11856535   -3.71793652   +6.32241150
 O   +0.20311012   -3.99628673   +4.58037793
 H   +3.00611563   -3.40319812   +6.85569001
 H   -0.91918852   +0.02352521   -0.56389935
 H   +2.17120962   -4.77517502   +6.08202405
 H   +1.22979737   -3.53818425   +6.91905299
 H   +0.22221027   -2.56841986   +2.50499644
 H   +1.98008952   -2.60658459   +2.53080751
 H   +0.27288809   -0.55780901   +4.00461094
 H   +2.02111784   -0.63251834   +4.03995624
 H   +1.36136830   +1.16246972   +2.58144476
 H   +2.11233055   -0.15873044   +1.59011916
 H   -0.94829091   +0.02472327   +1.85548391
 H   +0.92240414   -0.02526380   -0.56262308
 H   +1.56280736   +2.09059198   +2.99527078
22
 * E =  +1.372 kcal/mol ; (15) 219_185_181_315_182
 C   +0.00000000   +0.00000000   +0.00000000
 C   +0.00000000   +0.00000000   +1.33003238
 C   +1.20421383   +0.00000000   +2.16427905
 C   +1.15261453   -0.84204480   +3.41395695
 C   +2.39417399   -0.66998553   +4.27145889
 C   +2.39532566   -1.49780459   +5.51845518
 O   +1.22403110   -1.45192579   +6.15114384
 C   +1.15842927   -2.18611681   +7.36107167
 O   +3.33355630   -2.12254268   +5.93308304
 H   +0.15368716   -2.04693590   +7.73833563
 H   -0.91947670   +0.02026677   -0.56357065
 H   +1.88911665   -1.81118136   +8.07085685
 H   +1.35623541   -3.23731263   +7.17682301
 H   +3.29620619   -0.92525421   +3.72322336
 H   +2.48430273   +0.37372365   +4.57580006
 H   +1.04314453   -1.89120653   +3.13249640
 H   +0.26959130   -0.58565693   +3.99636176
 H   +1.35083004   +1.16665508   +2.58400213
 H   +2.11406140   -0.14723203   +1.58535766
 H   -0.94756401   +0.02242054   +1.85550917
 H   +0.92206735   -0.02241568   -0.56317556
 H   +1.51880613   +2.10184802   +2.99843556
22
 * E =  +1.416 kcal/mol ; (16) 218_185_296_327_182
 C   +0.00000000   +0.00000000   +0.00000000
 C   +0.00000000   +0.00000000   +1.33003281
 C   +1.20401264   +0.00000000   +2.16424528
 C   +1.15176035   -0.83890439   +3.41676083
 C   +2.39132435   -0.69504943   +4.27965888
 C   +3.66636958   -1.17008421   +3.64865605
 O   +3.47488328   -2.19955508   +2.82480952
 C   +4.64799583   -2.72737643   +2.23093644
 O   +4.75324190   -0.71090505   +3.87155288
 H   +4.31889229   -3.53750783   +1.59329411
 H   -0.91929948   +0.02075477   -0.56390368
 H   +5.32683325   -3.09285962   +2.99500734
 H   +5.15452459   -1.96331431   +1.64968201
 H   +2.55520962   +0.33725741   +4.57642975
 H   +2.27336851   -1.27140507   +5.19756732
 H   +1.01809183   -1.88497229   +3.14239935
 H   +0.28026562   -0.55306599   +4.00536414
 H   +1.35158118   +1.16843955   +2.58243388
 H   +2.11205386   -0.15596493   +1.58503165
 H   -0.94813159   +0.02279082   +1.85485329
 H   +0.92235177   -0.02240440   -0.56259942
 H   +1.50923776   +2.10006633   +3.00225341
22
 * E =  +1.432 kcal/mol ; (17) 218_181_066_048_181
 C   +0.00000000   +0.00000000   +0.00000000
 C   +0.00000000   +0.00000000   +1.32987824
 C   +1.20436620   +0.00000000   +2.16482824
 C   +1.13811745   -0.83702939   +3.41850744
 C   +2.40046224   -0.77660481   +4.26227809
 C   +2.67357348   +0.56901228   +4.86364698
 O   +1.59285599   +1.07424872   +5.45430972
 C   +1.76065043   +2.36077701   +6.02270499
 O   +3.73436554   +1.13135466   +4.84896874
 H   +0.80364540   +2.62132862   +6.45576218
 H   -0.91951168   +0.02177051   -0.56352046
 H   +2.03850705   +3.07417129   +5.25248404
 H   +2.53429597   +2.34146748   +6.78373905
 H   +2.31669126   -1.48229692   +5.08827985
 H   +3.27881046   -1.05135745   +3.68581078
 H   +0.96540235   -1.87589782   +3.13297760
 H   +0.28369305   -0.53181526   +4.02041736
 H   +1.35931290   +1.18803414   +2.54308821
 H   +2.11360809   -0.16432841   +1.58968387
 H   -0.94759268   +0.02522484   +1.85531772
 H   +0.92208984   -0.02307922   -0.56308292
 H   +1.51991563   +2.15954130   +2.83543459
22
 * E =  +1.477 kcal/mol ; (18) 226_315_304_290_176
 C   +0.00000000   +0.00000000   +0.00000000
 C   +0.00000000   +0.00000000   +1.33063781
 C   +1.21662599   +0.00000000   +2.14883640
 C   +1.29913835   -0.95302581   +3.32091846
 C   +0.05104666   -1.00931054   +4.19516919
 C   -0.32278133   +0.34110425   +4.72184208
 O   +0.55004634   +0.77561180   +5.62586909
 C   +0.31334303   +2.08326515   +6.11841550
 O   -1.27393043   +0.98423553   +4.36603114
 H   +1.10743047   +2.28145519   +6.82637848
 H   -0.91996350   +0.02918100   -0.56264422
 H   -0.65583810   +2.13431509   +6.60438646
 H   +0.33987110   +2.79944764   +5.30283086
 H   -0.80036648   -1.39001307   +3.64076156
 H   +0.23729330   -1.67287835   +5.03631876
 H   +2.15410125   -0.68037540   +3.93758911
 H   +1.49070658   -1.95821635   +2.94371327
 H   +1.31031793   +1.14210857   +2.65030754
 H   +2.11929847   -0.03765980   +1.54316617
 H   -0.94443983   +0.04668981   +1.85770335
 H   +0.92148400   -0.02895071   -0.56438719
 H   +1.49222833   +2.05207546   +3.10177265
22
 * E =  +1.496 kcal/mol ; (19) 014_071_183_054_179
 C   +0.00000000   +0.00000000   +0.00000000
 C   +0.00000000   +0.00000000   +1.33107068
 C   +1.18997170   +0.00000000   +2.19377203
 C   +2.52539980   +0.32112875   +1.57527546
 C   +2.64425700   +1.79404053   +1.20142230
 C   +3.93598284   +2.12799357   +0.52450066
 O   +4.15437093   +1.34937789   -0.53538170
 C   +5.35348709   +1.60957897   -1.24351822
 O   +4.69864124   +2.99156088   +0.86371445
 H   +5.37755461   +0.89776801   -2.05838488
 H   -0.92455880   -0.02730239   -0.55469101
 H   +6.21289697   +1.47665022   -0.59400402
 H   +5.35536264   +2.62637851   -1.62355751
 H   +1.83484030   +2.06467545   +0.52417342
 H   +2.56920068   +2.42847184   +2.07904584
 H   +2.68962845   -0.29338141   +0.69300759
 H   +3.31296944   +0.06478338   +2.28252122
 H   +1.30636836   -1.15386646   +2.62489173
 H   +1.02020143   +0.54142627   +3.12263643
 H   -0.95173116   -0.03195561   +1.84577073
 H   +0.91269110   +0.03190026   -0.57726739
 H   +1.52863126   -2.10832474   +2.99526978
22
 * E =  +1.503 kcal/mol ; (20) 009_175_064_054_182
 C   +0.00000000   +0.00000000   +0.00000000
 C   +0.00000000   +0.00000000   +1.33041939
 C   +1.19203447   +0.00000000   +2.18748017
 C   +2.52907349   +0.21756284   +1.53029295
 C   +3.67730205   +0.31462078   +2.52291920
 C   +3.90904489   -0.94934537   +3.29371676
 O   +4.07752522   -1.99265240   +2.48467217
 C   +4.26182107   -3.23860013   +3.13286917
 O   +3.95195093   -1.03560353   +4.49080304
 H   +4.37894029   -3.96951180   +2.34341400
 H   -0.92421888   -0.01590606   -0.55569254
 H   +3.39524266   -3.47212661   +3.74426997
 H   +5.14407999   -3.21042595   +3.76453783
 H   +4.59817373   +0.54362503   +1.98841321
 H   +3.50713755   +1.10456057   +3.24818783
 H   +2.49103464   +1.14398126   +0.95490140
 H   +2.73126959   -0.58437906   +0.82230011
 H   +1.22628974   -1.14168272   +2.70103951
 H   +1.05679032   +0.60676212   +3.08123284
 H   -0.94994484   -0.02394393   +1.84874197
 H   +0.91337934   +0.02281840   -0.57541278
 H   +1.28395665   -2.08653681   +3.11435913
22
 * E =  +1.514 kcal/mol ; (21) 009_181_180_318_182
 C   +0.00000000   +0.00000000   +0.00000000
 C   +0.00000000   +0.00000000   +1.33051146
 C   +1.19277907   +0.00000000   +2.18566120
 C   +2.53301864   +0.19979915   +1.53269195
 C   +3.66345606   +0.15794090   +2.54533361
 C   +5.02698693   +0.35485044   +1.95930116
 O   +5.18343571   -0.30650201   +0.81399849
 C   +6.46525297   -0.19723396   +0.22030488
 O   +5.90303169   +1.00884401   +2.45672982
 H   +6.42209193   -0.78361675   -0.68826116
 H   -0.92422337   -0.01342949   -0.55577067
 H   +7.22637454   -0.58473354   +0.89020637
 H   +6.69105407   +0.84048919   -0.00379638
 H   +3.54091439   +0.91496221   +3.31446516
 H   +3.66830438   -0.81142713   +3.04632682
 H   +2.53913776   +1.15864721   +1.01033843
 H   +2.69815327   -0.56532744   +0.77729249
 H   +1.25392439   -1.13203133   +2.70364659
 H   +1.05899327   +0.61406423   +3.07482771
 H   -0.94989280   -0.01909285   +1.84919391
 H   +0.91387757   +0.02261642   -0.57457745
 H   +1.41745843   -2.07065431   +3.11939151
22
 * E =  +1.538 kcal/mol ; (22) 219_186_181_046_179
 C   +0.00000000   +0.00000000   +0.00000000
 C   +0.00000000   +0.00000000   +1.32999942
 C   +1.20411882   +0.00000000   +2.16450286
 C   +1.15367846   -0.84355221   +3.41314701
 C   +2.39165119   -0.66607198   +4.27517691
 C   +2.39222219   -1.49701473   +5.52055449
 O   +2.01974344   -2.75422759   +5.28379339
 C   +2.02465560   -3.61136873   +6.41183648
 O   +2.70662904   -1.10776446   +6.61215522
 H   +1.69874268   -4.57825208   +6.05107545
 H   -0.91944557   +0.02126132   -0.56358040
 H   +1.34694318   -3.23849367   +7.17324548
 H   +3.02298643   -3.67658993   +6.83302144
 H   +3.27781682   -0.94624975   +3.70350970
 H   +2.51766588   +0.36784364   +4.58136668
 H   +1.04869558   -1.89331629   +3.14090759
 H   +0.26456553   -0.58325994   +3.98856588
 H   +1.35287282   +1.16910681   +2.57885840
 H   +2.11385846   -0.15047835   +1.58587693
 H   -0.94775641   +0.02375908   +1.85511561
 H   +0.92202817   -0.02316976   -0.56322575
 H   +1.52145298   +2.10681772   +2.98281437
22
 * E =  +1.548 kcal/mol ; (23) 009_184_080_213_182
 C   +0.00000000   +0.00000000   +0.00000000
 C   +0.00000000   +0.00000000   +1.33063171
 C   +1.18885609   +0.00000000   +2.19036594
 C   +2.53189740   +0.21810101   +1.54664444
 C   +3.68430647   +0.09742488   +2.52669155
 C   +4.05440791   -1.33053436   +2.79856480
 O   +4.48723261   -1.50766787   +4.04263732
 C   +4.89025577   -2.82895252   +4.36001710
 O   +4.00588681   -2.21617615   +1.98859096
 H   +5.20305347   -2.80225772   +5.39563566
 H   -0.92483705   -0.01321698   -0.55479762
 H   +5.71022511   -3.13893718   +3.71981512
 H   +4.06060025   -3.51605000   +4.22709120
 H   +4.57849602   +0.56157434   +2.11037726
 H   +3.47882350   +0.60240890   +3.46718807
 H   +2.54319774   +1.21116774   +1.09540898
 H   +2.68773789   -0.50030814   +0.74427387
 H   +1.22295114   -1.13292274   +2.73155650
 H   +1.04898467   +0.61758264   +3.07658873
 H   -0.95108993   -0.01834602   +1.84744071
 H   +0.91298854   +0.01747550   -0.57563337
 H   +1.28306037   -2.03581321   +3.21923414
22
 * E =  +1.556 kcal/mol ; (24) 358_287_172_171_179
 C   +0.00000000   +0.00000000   +0.00000000
 C   +0.00000000   +0.00000000   +1.33029123
 C   +1.18413238   +0.00000000   +2.20086336
 C   +2.55175474   -0.05557609   +1.57112846
 C   +2.88254651   -1.41782058   +0.99222151
 C   +4.15308028   -1.41060162   +0.20351118
 O   +4.52515369   -2.64139203   -0.13967663
 C   +5.71090969   -2.72541861   -0.91024793
 O   +4.77597899   -0.43039670   -0.10549974
 H   +5.86963948   -3.77982161   -1.09515853
 H   -0.92464316   +0.00873494   -0.55520921
 H   +6.54824774   -2.30260474   -0.36405821
 H   +5.59440759   -2.18686239   -1.84556739
 H   +2.96995043   -2.16852981   +1.77553405
 H   +2.09075110   -1.77540382   +0.33456827
 H   +3.30394903   +0.20411348   +2.31236778
 H   +2.63515088   +0.70035257   +0.78979147
 H   +1.09202069   -1.03492916   +2.91679171
 H   +1.10469085   +0.75637930   +2.97854560
 H   -0.95307782   +0.00532451   +1.84449027
 H   +0.91320534   +0.01596472   -0.57671087
 H   +1.08667843   -1.86572427   +3.50599023
22
 * E =  +1.621 kcal/mol ; (25) 008_178_293_279_178
 C   +0.00000000   +0.00000000   +0.00000000
 C   +0.00000000   +0.00000000   +1.33069687
 C   +1.19033247   +0.00000000   +2.18887700
 C   +2.53182079   +0.19171414   +1.53296178
 C   +3.67839638   +0.23145610   +2.53928227
 C   +3.58888465   +1.44688595   +3.40688681
 O   +4.07239763   +2.52586546   +2.79367222
 C   +3.97697585   +3.73580421   +3.52441992
 O   +3.10940031   +1.48435801   +4.50861295
 H   +4.41304871   +4.49887072   +2.89303893
 H   -0.92392303   -0.01455542   -0.55624535
 H   +4.52122849   +3.65606890   +4.46014094
 H   +2.93861044   +3.96640409   +3.74133142
 H   +3.64303159   -0.64094120   +3.18537839
 H   +4.62802478   +0.24539743   +2.01167648
 H   +2.53253479   +1.11186980   +0.94630901
 H   +2.71446376   -0.62260419   +0.83288668
 H   +1.25415980   -1.13039607   +2.69860259
 H   +1.05937526   +0.60707525   +3.08229544
 H   -0.95032518   -0.02094761   +1.84846540
 H   +0.91337637   +0.02345430   -0.57562262
 H   +1.43818841   -2.08280988   +3.08436684
22
 * E =  +1.666 kcal/mol ; (26) 015_070_063_033_178
 C   +0.00000000   +0.00000000   +0.00000000
 C   +0.00000000   +0.00000000   +1.33079225
 C   +1.18682883   +0.00000000   +2.19759771
 C   +2.52723099   +0.33169546   +1.59297825
 C   +2.65595772   +1.79372257   +1.19358356
 C   +2.56495267   +2.77055416   +2.32771933
 O   +3.07264550   +2.28633553   +3.46095888
 C   +3.06330271   +3.18020001   +4.56021386
 O   +2.12026090   +3.88249231   +2.24013706
 H   +3.49663237   +2.63572909   +5.38909680
 H   -0.92392239   -0.02478157   -0.55568307
 H   +2.04760749   +3.48564775   +4.79110793
 H   +3.65117507   +4.06407259   +4.33354066
 H   +3.62532458   +1.96284311   +0.72293550
 H   +1.89816597   +2.08453790   +0.47268681
 H   +2.70282209   -0.28952825   +0.71632338
 H   +3.30660472   +0.08719467   +2.31045976
 H   +1.30589978   -1.15423727   +2.62301293
 H   +1.01476769   +0.53500600   +3.12959731
 H   -0.95295995   -0.03067604   +1.84325023
 H   +0.91212639   +0.03076539   -0.57777160
 H   +1.53452067   -2.11272088   +2.98430172
22
 * E =  +1.669 kcal/mol ; (27) 008_180_179_037_178
 C   +0.00000000   +0.00000000   +0.00000000
 C   +0.00000000   +0.00000000   +1.33046108
 C   +1.19286984   +0.00000000   +2.18551249
 C   +2.53331645   +0.19365605   +1.53128427
 C   +3.66293582   +0.16541388   +2.54419958
 C   +5.03236046   +0.33782026   +1.96257247
 O   +5.04698924   +1.19951886   +0.94703352
 C   +6.32062152   +1.43979287   +0.37452195
 O   +6.02378510   -0.20593801   +2.36692964
 H   +6.15666731   +2.14899687   -0.42634568
 H   -0.92409516   -0.01510354   -0.55593468
 H   +6.74184760   +0.51687126   -0.01121592
 H   +6.99758103   +1.85029002   +1.11712410
 H   +3.52906518   +0.96992316   +3.26959312
 H   +3.67378844   -0.76499935   +3.10466223
 H   +2.54698855   +1.14076731   +0.99260951
 H   +2.69167311   -0.58647288   +0.78673795
 H   +1.24623885   -1.12940917   +2.71217013
 H   +1.06210533   +0.62039819   +3.07099890
 H   -0.94982612   -0.02134992   +1.84921128
 H   +0.91389261   +0.02560791   -0.57444356
 H   +1.39999747   -2.06477334   +3.13358064
22
 * E =  +1.690 kcal/mol ; (28) 013_071_180_302_180
 C   +0.00000000   +0.00000000   +0.00000000
 C   +0.00000000   +0.00000000   +1.33074508
 C   +1.18799178   +0.00000000   +2.19614211
 C   +2.53137058   +0.30228683   +1.58583291
 C   +2.66883792   +1.76925967   +1.19200407
 C   +3.99755529   +2.07409542   +0.57462889
 O   +5.00396914   +1.77057415   +1.39372278
 C   +6.30092085   +2.02379996   +0.88331917
 O   +4.16821926   +2.53203439   -0.52258916
 H   +6.99025921   +1.72003060   +1.66032874
 H   -0.92436751   -0.02732810   -0.55488425
 H   +6.41955675   +3.07903527   +0.65805908
 H   +6.46943665   +1.45093884   -0.02312612
 H   +1.90481308   +2.06164221   +0.48013610
 H   +2.55976592   +2.39145282   +2.08007024
 H   +2.69224837   -0.33109372   +0.71387033
 H   +3.31423713   +0.05271219   +2.29829189
 H   +1.29135334   -1.14936212   +2.64213144
 H   +1.02018703   +0.55440255   +3.11797922
 H   -0.95203579   -0.03307271   +1.84490883
 H   +0.91160308   +0.03518403   -0.57834855
 H   +1.50101767   -2.10189689   +3.02645189
22
 * E =  +1.937 kcal/mol ; (29) 222_310_085_211_183
 C   +0.00000000   +0.00000000   +0.00000000
 C   +0.00000000   +0.00000000   +1.33002637
 C   +1.21089961   +0.00000000   +2.15637976
 C   +1.25238010   -0.88284859   +3.38320110
 C   +0.03901615   -0.73909585   +4.28461211
 C   -1.10976042   -1.60080766   +3.85415194
 O   -2.28476137   -1.05600603   +4.16028671
 C   -3.41961798   -1.84258181   +3.84001564
 O   -1.00586116   -2.67292618   +3.32284152
 H   -4.27894577   -1.26143234   +4.14797852
 H   -0.91892867   +0.02712062   -0.56410866
 H   -3.38656953   -2.78837385   +4.37160848
 H   -3.45298499   -2.04108723   +2.77338592
 H   +0.28638588   -1.06462221   +5.29516759
 H   -0.29154687   +0.29412259   +4.36578763
 H   +2.14885166   -0.63640412   +3.94849856
 H   +1.33863689   -1.92700279   +3.08325570
 H   +1.32229800   +1.14426659   +2.61816478
 H   +2.11302914   -0.09419264   +1.55647324
 H   -0.95150710   +0.04497892   +1.84658988
 H   +0.92203401   -0.03512129   -0.56252055
 H   +1.49371364   +2.05581821   +3.10783508
22
 * E =  +2.098 kcal/mol ; (30) 219_301_184_046_179
 C   +0.00000000   +0.00000000   +0.00000000
 C   +0.00000000   +0.00000000   +1.33067288
 C   +1.21237235   +0.00000000   +2.15433507
 C   +1.22345182   -0.83809126   +3.41162460
 C   +0.12991980   -0.45821428   +4.39713559
 C   +0.18107185   -1.22423742   +5.68305141
 O   +1.41429378   -1.28846257   +6.18141907
 C   +1.53518257   -1.97145948   +7.41678731
 O   -0.76778332   -1.71532312   +6.23180624
 H   +2.58576524   -1.93515652   +7.67399906
 H   -0.91925216   +0.02149741   -0.56387059
 H   +1.20098547   -2.99909697   +7.31514986
 H   +0.93745832   -1.48218251   +8.17939813
 H   +0.22362690   +0.60020358   +4.64630905
 H   -0.86385016   -0.61176213   +3.99017710
 H   +2.18858103   -0.72919997   +3.90031730
 H   +1.12587545   -1.89140822   +3.14215736
 H   +1.37698951   +1.16177972   +2.57079590
 H   +2.10776500   -0.14975570   +1.55589687
 H   -0.95099275   +0.02947241   +1.84717655
 H   +0.92232108   -0.02396126   -0.56294659
 H   +1.59128327   +2.08393473   +3.00227482
22
 * E =  +2.136 kcal/mol ; (31) 024_085_297_291_177
 C   +0.00000000   +0.00000000   +0.00000000
 C   +0.00000000   +0.00000000   +1.33077786
 C   +1.18245121   +0.00000000   +2.20802812
 C   +2.49647828   +0.53203295   +1.68782334
 C   +2.62695005   +2.04714455   +1.82494060
 C   +1.60458530   +2.79669634   +1.02987709
 O   +1.82441817   +2.68469913   -0.27929587
 C   +0.85595052   +3.30310175   -1.10651486
 O   +0.68950050   +3.42482140   +1.48842571
 H   +1.17552407   +3.12417786   -2.12510624
 H   -0.92746033   -0.04365115   -0.54937398
 H   +0.80679737   +4.36806744   -0.90248494
 H   -0.12092348   +2.86343889   -0.92713473
 H   +2.51011413   +2.34604572   +2.86215320
 H   +3.61468439   +2.35247642   +1.48521708
 H   +2.64975023   +0.24472790   +0.64999209
 H   +3.30782124   +0.07887217   +2.25517682
 H   +1.39718876   -1.17432790   +2.48500614
 H   +0.95061833   +0.40470024   +3.19116487
 H   -0.95312688   -0.05486519   +1.84027407
 H   +0.90798419   +0.05398493   -0.58161739
 H   +1.72393790   -2.15638158   +2.74271013
22
 * E =  +2.231 kcal/mol ; (32) 220_303_185_319_182
 C   +0.00000000   +0.00000000   +0.00000000
 C   +0.00000000   +0.00000000   +1.33070229
 C   +1.21179644   +0.00000000   +2.15494449
 C   +1.22977044   -0.85340884   +3.40168058
 C   +0.10966719   -0.52142306   +4.37349980
 C   +0.18366903   -1.26815534   +5.66920744
 O   +0.53273965   -2.54194536   +5.49618958
 C   +0.58946423   -3.32094913   +6.67834838
 O   -0.06203379   -0.80257560   +6.74846708
 H   +0.89193410   -4.31202200   +6.36608151
 H   -0.91908613   +0.02525749   -0.56403732
 H   -0.38369989   -3.35121576   +7.15826791
 H   +1.30992780   -2.90154371   +7.37334656
 H   +0.09831967   +0.53727878   +4.61769203
 H   -0.85910573   -0.76232171   +3.93518608
 H   +2.18789248   -0.71312143   +3.90079923
 H   +1.17563072   -1.90668151   +3.12897264
 H   +1.36577017   +1.15966788   +2.58127008
 H   +2.10868403   -0.13634516   +1.55550021
 H   -0.95125558   +0.03484158   +1.84669090
 H   +0.92225043   -0.02689495   -0.56283507
 H   +1.57458023   +2.07930061   +3.01860394
22
 * E =  +2.335 kcal/mol ; (33) 225_310_077_042_179
 C   +0.00000000   +0.00000000   +0.00000000
 C   +0.00000000   +0.00000000   +1.33066245
 C   +1.21482565   +0.00000000   +2.15164044
 C   +1.29497341   -0.92823982   +3.34237361
 C   +0.09702141   -0.86255182   +4.27717048
 C   -1.13466880   -1.57046759   +3.79762653
 O   -0.85519737   -2.75062683   +3.25121751
 C   -1.97367204   -3.48784751   +2.79054293
 O   -2.25688780   -1.15510375   +3.91053238
 H   -1.57520502   -4.40879001   +2.38537247
 H   -0.91952852   +0.03203069   -0.56317568
 H   -2.50134248   -2.93007975   +2.02330412
 H   -2.65604156   -3.69210659   +3.60952075
 H   +0.35917321   -1.32995615   +5.22649364
 H   -0.18652043   +0.16365596   +4.49550639
 H   +2.18816808   -0.67121142   +3.90941614
 H   +1.42529598   -1.95366072   +2.99876432
 H   +1.30022549   +1.13323320   +2.65876836
 H   +2.11619242   -0.04628351   +1.54464378
 H   -0.95015033   +0.04780642   +1.84845572
 H   +0.92177637   -0.03254660   -0.56343808
 H   +1.45548554   +2.02193966   +3.17462620
22
 * E =  +2.500 kcal/mol ; (34) 000_286_162_299_180
 C   +0.00000000   +0.00000000   +0.00000000
 C   +0.00000000   +0.00000000   +1.33107161
 C   +1.18892112   +0.00000000   +2.19521124
 C   +2.54331531   -0.00714172   +1.53552194
 C   +2.89096133   -1.36509792   +0.92673672
 C   +3.99588607   -1.28545709   -0.07683543
 O   +3.66818416   -0.48990828   -1.09800207
 C   +4.65508088   -0.35640559   -2.10539777
 O   +5.05143616   -1.85362952   -0.01117929
 H   +4.23604354   +0.31274231   -2.84566762
 H   -0.92669570   +0.00420142   -0.55211684
 H   +4.87841127   -1.32283938   -2.54633666
 H   +5.56776074   +0.05781433   -1.68859415
 H   +3.19184791   -2.06828387   +1.69564356
 H   +2.01602650   -1.77291831   +0.42270868
 H   +3.30686194   +0.26230036   +2.26173242
 H   +2.56469671   +0.75754502   +0.75844768
 H   +1.13360506   -1.06028517   +2.87554428
 H   +1.10529976   +0.73097146   +2.99612429
 H   -0.95131532   -0.00179292   +1.84819079
 H   +0.91286491   +0.01211562   -0.57898325
 H   +1.16243771   -1.91538568   +3.42984788
22
 * E =  +2.677 kcal/mol ; (35) 359_287_175_053_179
 C   +0.00000000   +0.00000000   +0.00000000
 C   +0.00000000   +0.00000000   +1.33031230
 C   +1.18128912   +0.00000000   +2.20405327
 C   +2.55438776   -0.01606546   +1.58274459
 C   +2.91831962   -1.36497295   +0.97113486
 C   +4.23521584   -1.34372288   +0.26247229
 O   +5.21031849   -0.87883910   +1.04324021
 C   +6.49604860   -0.83713659   +0.45026806
 O   +4.42395978   -1.69876898   -0.86947124
 H   +7.15960800   -0.44067377   +1.20775251
 H   -0.92562247   +0.00834987   -0.55354729
 H   +6.48864719   -0.19596839   -0.42558409
 H   +6.80773251   -1.83332846   +0.15232926
 H   +2.97767351   -2.10939150   +1.76473716
 H   +2.17371774   -1.70312447   +0.25949786
 H   +3.29777412   +0.23602139   +2.33406730
 H   +2.61085368   +0.76350049   +0.81959336
 H   +1.11092009   -1.05096461   +2.89764481
 H   +1.08716320   +0.73864464   +2.99708382
 H   -0.95334720   +0.00482129   +1.84390048
 H   +0.91083381   +0.00913293   -0.58017893
 H   +1.12660609   -1.89149328   +3.47385082
22
 * E =  +3.723 kcal/mol ; (36) 074_304_296_304_178
 C   +0.00000000   +0.00000000   +0.00000000
 C   +0.00000000   +0.00000000   +1.32936991
 C   +1.20325092   +0.00000000   +2.18438416
 C   +2.01865589   +1.26898933   +2.30884589
 C   +2.51224279   +1.86181181   +0.99827448
 C   +3.46405405   +0.96505303   +0.26797441
 O   +4.50530566   +0.63015686   +1.02482692
 C   +5.43000763   -0.25986986   +0.42486654
 O   +3.33035973   +0.58194260   -0.86370994
 H   +6.20096309   -0.43002277   +1.16505970
 H   -0.92718921   -0.00472895   -0.55225663
 H   +5.85088071   +0.17964330   -0.47388993
 H   +4.93557955   -1.19144524   +0.16635334
 H   +1.68998298   +2.08339482   +0.32678355
 H   +3.03602298   +2.79318008   +1.20892262
 H   +2.87213311   +1.07321613   +2.95506956
 H   +1.40972333   +2.02249969   +2.81223641
 H   +2.00588459   -0.88838844   +1.69794968
 H   +1.00583458   -0.42275305   +3.16604101
 H   -0.95234636   -0.03337263   +1.84645463
 H   +0.91661675   -0.01237041   -0.57353333
 H   +2.61463075   -1.56497981   +1.35080534
22
 * E =  +4.089 kcal/mol ; (37) 078_301_289_124_182
 C   +0.00000000   +0.00000000   +0.00000000
 C   +0.00000000   +0.00000000   +1.32859872
 C   +1.20600767   +0.00000000   +2.17955988
 C   +1.96133783   +1.29763496   +2.36734218
 C   +2.48387194   +1.93229195   +1.08841788
 C   +3.62379588   +1.14140202   +0.52221972
 O   +3.41235030   +0.76410910   -0.73605640
 C   +4.44359697   -0.02078448   -1.31078372
 O   +4.62380418   +0.86489018   +1.12797578
 H   +4.57306754   -0.93778418   -0.74390388
 H   -0.92361454   +0.00103307   -0.55792216
 H   +5.37982613   +0.52821459   -1.31385742
 H   +4.12318585   -0.23751652   -2.32148380
 H   +1.69904088   +2.04529492   +0.34790382
 H   +2.87544791   +2.92132401   +1.31885144
 H   +2.80144169   +1.12577561   +3.03753290
 H   +1.30113436   +2.01209888   +2.86276352
 H   +2.04091267   -0.83157594   +1.61710064
 H   +1.03644796   -0.49194411   +3.13362344
 H   -0.95256307   -0.02465606   +1.84652630
 H   +0.92100682   -0.01824155   -0.56609251
 H   +2.63764060   -1.45285751   +1.19340054
22
 * E =  +4.602 kcal/mol ; (38) 079_303_183_318_182
 C   +0.00000000   +0.00000000   +0.00000000
 C   +0.00000000   +0.00000000   +1.32837948
 C   +1.20558072   +0.00000000   +2.17943411
 C   +1.95266864   +1.29701793   +2.38630146
 C   +2.40962036   +1.94962985   +1.09469580
 C   +3.20153066   +3.20368932   +1.29234647
 O   +2.68874850   +3.97871973   +2.24767533
 C   +3.36666155   +5.20377356   +2.46335574
 O   +4.17484553   +3.51257311   +0.66010714
 H   +2.83222372   +5.70198465   +3.26179998
 H   -0.92116117   +0.00062655   -0.56144651
 H   +3.35499799   +5.80665571   +1.56074689
 H   +4.39773307   +5.02063717   +2.74873070
 H   +3.02468646   +1.27525101   +0.50499439
 H   +1.54314045   +2.21190626   +0.48760748
 H   +2.81700073   +1.09555641   +3.01869818
 H   +1.32476779   +1.99642611   +2.93924110
 H   +2.06881238   -0.77446397   +1.59317045
 H   +1.04486151   -0.51620056   +3.12219593
 H   -0.95323787   -0.02430993   +1.84496772
 H   +0.92091717   -0.02298904   -0.56557717
 H   +2.73777130   -1.31087398   +1.15492276
22
 * E =  +7.858 kcal/mol ; (39) 220_066_069_187_002
 C   +0.00000000   +0.00000000   +0.00000000
 C   +0.00000000   +0.00000000   +1.33099459
 C   +1.20251035   +0.00000000   +2.16820711
 C   +1.15570677   -0.87383224   +3.39835656
 C   +1.08598890   -2.35169456   +3.05963948
 C   +2.36791729   -2.85606793   +2.45310721
 O   +2.38552385   -4.10817167   +1.98245979
 C   +1.23103827   -4.91593353   +2.00384484
 O   +3.36840001   -2.20187371   +2.39213690
 H   +1.54530345   -5.88689337   +1.64198555
 H   -0.91897782   +0.02659304   -0.56468463
 H   +0.45995708   -4.52469128   +1.34413811
 H   +0.83280232   -5.02509728   +3.00972287
 H   +0.88894397   -2.93998749   +3.95746863
 H   +0.25758248   -2.54886567   +2.37965573
 H   +0.28163523   -0.61361348   +3.99492241
 H   +2.03611867   -0.68731485   +4.00799520
 H   +1.32639293   +1.15483789   +2.62468929
 H   +2.12130477   -0.12442187   +1.60248177
 H   -0.95053487   +0.02449087   +1.85358813
 H   +0.92358892   -0.02210183   -0.56057185
 H   +1.47941575   +2.06491977   +3.07918379
22
 * E =  +7.988 kcal/mol ; (40) 218_188_291_174_357
 C   +0.00000000   +0.00000000   +0.00000000
 C   +0.00000000   +0.00000000   +1.33000876
 C   +1.20588741   +0.00000000   +2.16173190
 C   +1.14966311   -0.83983232   +3.41393859
 C   +2.34734580   -0.63890084   +4.31933409
 C   +3.61182001   -1.20246868   +3.72808228
 O   +4.75958084   -0.97156519   +4.37474221
 C   +4.79884021   -0.18092534   +5.54088509
 O   +3.63395990   -1.85860015   +2.72720756
 H   +5.82265136   -0.22460938   +5.89060675
 H   -0.91966198   +0.01994113   -0.56348286
 H   +4.14318599   -0.57080216   +6.31570748
 H   +4.54112425   +0.85408910   +5.32862290
 H   +2.48397838   +0.41954551   +4.54041927
 H   +2.18487533   -1.12879760   +5.28032327
 H   +1.08622916   -1.89055273   +3.13227204
 H   +0.24442214   -0.59904907   +3.97064989
 H   +1.34834509   +1.16383565   +2.58110951
 H   +2.11463955   -0.16367142   +1.58897705
 H   -0.94833926   +0.02346679   +1.85479324
 H   +0.92251291   -0.02726749   -0.56174831
 H   +1.51679231   +2.09674305   +3.01830714
22
 * E =  +8.147 kcal/mol ; (41) 007_183_290_174_358
 C   +0.00000000   +0.00000000   +0.00000000
 C   +0.00000000   +0.00000000   +1.33052078
 C   +1.18914795   +0.00000000   +2.18978470
 C   +2.53385010   +0.16760800   +1.53588156
 C   +3.67918317   +0.06523599   +2.52212652
 C   +3.74061081   +1.24596836   +3.45393105
 O   +4.63563739   +1.21059140   +4.44728005
 C   +5.46301128   +0.08791320   +4.65100348
 O   +3.04554371   +2.21324430   +3.33614196
 H   +6.12516652   +0.35546126   +5.46486252
 H   -0.92426455   -0.00676429   -0.55582888
 H   +6.05889079   -0.14005573   +3.77054172
 H   +4.88418239   -0.78664889   +4.93876941
 H   +3.60405110   -0.85594187   +3.10006888
 H   +4.63225885   +0.01048406   +1.99444658
 H   +2.57158065   +1.13757378   +1.04033345
 H   +2.66582577   -0.59552940   +0.77022832
 H   +1.23164164   -1.12492571   +2.72355466
 H   +1.06753887   +0.64167989   +3.05899505
 H   -0.95056587   -0.01119807   +1.84806562
 H   +0.91307350   +0.02313048   -0.57575833
 H   +1.39322982   -2.06193732   +3.15112004
22
 * E =  +8.168 kcal/mol ; (42) 015_069_069_186_002
 C   +0.00000000   +0.00000000   +0.00000000
 C   +0.00000000   +0.00000000   +1.33173141
 C   +1.18461665   +0.00000000   +2.20097899
 C   +2.52340282   +0.33575883   +1.59452193
 C   +2.63939848   +1.78980727   +1.17343609
 C   +2.68586190   +2.72136257   +2.35471273
 O   +2.67059983   +4.03677100   +2.11093023
 C   +2.56771807   +4.53814442   +0.79797690
 O   +2.75364576   +2.34531121   +3.48910007
 H   +2.65005116   +5.61410118   +0.88734405
 H   -0.92314873   -0.02881489   -0.55705377
 H   +1.60672695   +4.29217300   +0.35209994
 H   +3.37089227   +4.17324980   +0.16235721
 H   +3.55032106   +1.94466460   +0.59279566
 H   +1.81322524   +2.06973564   +0.52144910
 H   +2.70912077   -0.29842021   +0.72915386
 H   +3.30029529   +0.11850370   +2.32330336
 H   +1.30844993   -1.15931351   +2.60945420
 H   +1.01884768   +0.52688798   +3.13633555
 H   -0.95380851   -0.03151710   +1.84287457
 H   +0.91362998   +0.02419710   -0.57636752
 H   +1.54399958   -2.12592888   +2.94212829
22
 * E =  +8.209 kcal/mol ; (43) 219_068_181_181_000
 C   +0.00000000   +0.00000000   +0.00000000
 C   +0.00000000   +0.00000000   +1.33069307
 C   +1.20100855   +0.00000000   +2.17069299
 C   +1.14760396   -0.84993657   +3.41549977
 C   +1.11392739   -2.32833925   +3.08411153
 C   +1.03463488   -3.17705771   +4.32300012
 O   +1.01861090   -4.50700282   +4.16822271
 C   +1.07845681   -5.09634887   +2.89006672
 O   +0.98400936   -2.72161095   +5.42785988
 H   +1.03409384   -6.16525737   +3.05707151
 H   -0.91895882   +0.02688595   -0.56428006
 H   +2.00910381   -4.85670994   +2.38083550
 H   +0.23576290   -4.79992238   +2.26994628
 H   +0.26337256   -2.55607361   +2.44010370
 H   +1.99840710   -2.61343794   +2.51256095
 H   +0.26790605   -0.59725201   +4.00475809
 H   +2.00427492   -0.64264505   +4.05223967
 H   +1.34654483   +1.16241331   +2.59690670
 H   +2.11304843   -0.14030425   +1.59289309
 H   -0.94870410   +0.02714402   +1.85539012
 H   +0.92267916   -0.02280201   -0.56241629
 H   +1.53395098   +2.08676859   +3.01293526
22
 * E =  +8.294 kcal/mol ; (44) 218_186_180_181_001
 C   +0.00000000   +0.00000000   +0.00000000
 C   +0.00000000   +0.00000000   +1.32990871
 C   +1.20558795   +0.00000000   +2.16284228
 C   +1.15305345   -0.83670634   +3.41558140
 C   +2.38075131   -0.65396023   +4.27988982
 C   +2.31513629   -1.49058245   +5.52727621
 O   +3.33491884   -1.40448515   +6.39015995
 C   +4.42563051   -0.54546657   +6.15090492
 O   +1.40344747   -2.22325180   +5.77820781
 H   +5.09681016   -0.68221341   +6.98947342
 H   -0.91955827   +0.01804500   -0.56344160
 H   +4.11510741   +0.49603607   +6.11242467
 H   +4.94886438   -0.80527457   +5.23359086
 H   +3.28400963   -0.91747696   +3.72703473
 H   +2.49928925   +0.39418198   +4.55733830
 H   +1.04852209   -1.88976875   +3.15533348
 H   +0.26557780   -0.58777658   +3.99495495
 H   +1.35950697   +1.16637157   +2.57161454
 H   +2.11256293   -0.15381685   +1.58018833
 H   -0.94680568   +0.02031346   +1.85640201
 H   +0.92196332   -0.02189667   -0.56348373
 H   +1.54557259   +2.10517545   +2.98448970
22
 * E =  +8.412 kcal/mol ; (45) 008_182_180_181_001
 C   +0.00000000   +0.00000000   +0.00000000
 C   +0.00000000   +0.00000000   +1.33037515
 C   +1.19417182   +0.00000000   +2.18413574
 C   +2.53367515   +0.18380306   +1.52624683
 C   +3.66850337   +0.12135489   +2.52420574
 C   +5.00526917   +0.30432314   +1.86056048
 O   +6.09797316   +0.24038159   +2.63119167
 C   +6.00448265   -0.01652465   +4.01319812
 O   +5.13321171   +0.50701340   +0.68861538
 H   +7.02065381   +0.00814375   +4.38623323
 H   -0.92478408   -0.01217020   -0.55491469
 H   +5.57887902   -0.99772916   +4.21027769
 H   +5.42112062   +0.74482810   +4.52576308
 H   +3.55090758   +0.88913469   +3.29088600
 H   +3.65910875   -0.83155195   +3.05483199
 H   +2.56576452   +1.13816153   +1.00067454
 H   +2.68840123   -0.57880756   +0.76556585
 H   +1.24520593   -1.12416159   +2.71761633
 H   +1.06383742   +0.62572138   +3.06631468
 H   -0.94934363   -0.01781433   +1.85011941
 H   +0.91346710   +0.02357637   -0.57510578
 H   +1.40746480   -2.05611539   +3.15532273
22
 * E =  +8.545 kcal/mol ; (46) 015_071_182_182_000
 C   +0.00000000   +0.00000000   +0.00000000
 C   +0.00000000   +0.00000000   +1.33126053
 C   +1.19017385   +0.00000000   +2.19416215
 C   +2.52413077   +0.34301003   +1.58408168
 C   +2.62417119   +1.80959965   +1.21339254
 C   +3.94414718   +2.13313654   +0.57041693
 O   +4.17369056   +3.40628425   +0.22459482
 C   +3.21659572   +4.41258733   +0.46095929
 O   +4.78721223   +1.31291944   +0.35261283
 H   +3.64318252   +5.32390081   +0.06101883
 H   -0.92378937   -0.03121981   -0.55575961
 H   +3.03030750   +4.54645938   +1.52417431
 H   +2.27966314   +4.20556536   -0.05070845
 H   +1.81928043   +2.08919881   +0.53306355
 H   +2.49498835   +2.43689118   +2.09648197
 H   +2.71285143   -0.26624201   +0.70320682
 H   +3.32036297   +0.09833118   +2.28323614
 H   +1.31578893   -1.15901941   +2.60914767
 H   +1.01169825   +0.52447510   +3.13143029
 H   -0.95232356   -0.03604027   +1.84479083
 H   +0.91325934   +0.02542717   -0.57665827
 H   +1.54086829   -2.11667480   +2.96582935
22
 * E =  +8.749 kcal/mol ; (47) 220_066_276_167_357
 C   +0.00000000   +0.00000000   +0.00000000
 C   +0.00000000   +0.00000000   +1.33127036
 C   +1.21446097   +0.00000000   +2.15118172
 C   +1.21802622   -0.86427891   +3.39023313
 C   +1.14233374   -2.34738355   +3.06714157
 C   -0.27096590   -2.82185882   +2.84476219
 O   -0.44681855   -4.03075632   +2.30125759
 C   +0.64480194   -4.81896912   +1.88614876
 O   -1.23458118   -2.19292402   +3.17361333
 H   +0.22404185   -5.77474920   +1.59964631
 H   -0.92021262   +0.01998948   -0.56247018
 H   +1.36084483   -4.97406469   +2.68964638
 H   +1.14555787   -4.38113606   +1.02567842
 H   +1.76294179   -2.58437396   +2.20464117
 H   +1.53942781   -2.93783027   +3.89542710
 H   +0.37809196   -0.60264065   +4.02991985
 H   +2.12998281   -0.66819093   +3.95023346
 H   +1.36511704   +1.15395658   +2.59308185
 H   +2.11542640   -0.12733444   +1.55206097
 H   -0.94166903   +0.01044445   +1.86395239
 H   +0.92215288   -0.02037965   -0.56427200
 H   +1.57287483   +2.06689643   +3.03506655
22
 * E =  +9.071 kcal/mol ; (48) 219_300_185_179_359
 C   +0.00000000   +0.00000000   +0.00000000
 C   +0.00000000   +0.00000000   +1.33052103
 C   +1.21155006   +0.00000000   +2.15623844
 C   +1.22359053   -0.84141804   +3.41048390
 C   +0.14767426   -0.45731072   +4.40404456
 C   +0.27101352   -1.24121230   +5.68168789
 O   -0.60354125   -0.97813578   +6.66051458
 C   -1.59704810   +0.00911318   +6.50982860
 O   +1.10353624   -2.08153004   +5.85869661
 H   -2.15543771   +0.00794442   +7.43750588
 H   -0.91881917   +0.02082930   -0.56465044
 H   -2.27361987   -0.22289462   +5.69047527
 H   -1.16399681   +0.99516953   +6.35896041
 H   +0.20614873   +0.60851774   +4.63088855
 H   -0.85045078   -0.62206834   +3.99758084
 H   +2.19176198   -0.74812453   +3.89672958
 H   +1.12097359   -1.89555260   +3.15414508
 H   +1.37136707   +1.16090435   +2.57178340
 H   +2.10714527   -0.14697171   +1.55778729
 H   -0.95241889   +0.02948971   +1.84536628
 H   +0.92263532   -0.02452145   -0.56219051
 H   +1.57294996   +2.08633310   +3.01057344
22
 * E =  +9.261 kcal/mol ; (49) 358_287_174_176_359
 C   +0.00000000   +0.00000000   +0.00000000
 C   +0.00000000   +0.00000000   +1.33038500
 C   +1.18493162   +0.00000000   +2.20014129
 C   +2.55194755   -0.05635424   +1.56940574
 C   +2.87924268   -1.41979563   +0.99093531
 C   +4.17808209   -1.40752703   +0.23587473
 O   +4.61964227   -2.56810977   -0.26379573
 C   +3.90662464   -3.76759775   -0.06735883
 O   +4.82486947   -0.41665140   +0.05682011
 H   +4.45650931   -4.52795488   -0.60763128
 H   -0.92456119   +0.00992575   -0.55533120
 H   +2.89777332   -3.70763091   -0.46856827
 H   +3.86579448   -4.04061708   +0.98459011
 H   +2.93104396   -2.16299147   +1.78668401
 H   +2.08702855   -1.76196501   +0.32457709
 H   +3.30857219   +0.20056575   +2.30622915
 H   +2.63775279   +0.69798946   +0.78736798
 H   +1.09333213   -1.03426860   +2.91541778
 H   +1.10687907   +0.75656824   +2.97771923
 H   -0.95295143   +0.00521530   +1.84474105
 H   +0.91307950   +0.02092370   -0.57694888
 H   +1.09228682   -1.86929910   +3.50160041
22
 * E = +10.036 kcal/mol ; (50) 215_300_089_187_002
 C   +0.00000000   +0.00000000   +0.00000000
 C   +0.00000000   +0.00000000   +1.33023113
 C   +1.22040163   +0.00000000   +2.14380320
 C   +1.22832072   -0.76367291   +3.44923342
 C   +0.19697984   -0.28499553   +4.45653652
 C   -1.13778883   -0.96878472   +4.32168342
 O   -2.14933115   -0.50552705   +5.06542375
 C   -1.99234651   +0.61158462   +5.91063007
 O   -1.32901543   -1.91255033   +3.61170791
 H   -2.92902204   +0.70823866   +6.44517420
 H   -0.91985983   +0.01800064   -0.56274511
 H   -1.81482601   +1.52084361   +5.34097947
 H   -1.18860846   +0.46585162   +6.62814940
 H   +0.54479260   -0.48123203   +5.47191954
 H   +0.07359443   +0.79645368   +4.39443046
 H   +2.21685343   -0.65813126   +3.89103954
 H   +1.06862030   -1.82361679   +3.25655542
 H   +1.42869279   +1.16446394   +2.49074162
 H   +2.10221359   -0.21408401   +1.54442311
 H   -0.94930052   +0.01823538   +1.84816403
 H   +0.92180807   -0.02979324   -0.56367313
 H   +1.68081430   +2.11313298   +2.89802162
22
 * E = +10.406 kcal/mol ; (51) 009_179_294_272_353
 C   +0.00000000   +0.00000000   +0.00000000
 C   +0.00000000   +0.00000000   +1.33085521
 C   +1.18848280   +0.00000000   +2.19088687
 C   +2.52548198   +0.21838815   +1.53433518
 C   +3.68185795   +0.22616152   +2.53490806
 C   +3.58717268   +1.40481669   +3.46384027
 O   +4.14913515   +2.56327941   +3.09618266
 C   +4.94802854   +2.66670992   +1.93996044
 O   +2.98217969   +1.36317727   +4.49664273
 H   +5.18836982   +3.71820069   +1.84275188
 H   -0.92375824   -0.01386260   -0.55638956
 H   +4.41837200   +2.34136420   +1.04817701
 H   +5.87146429   +2.10191445   +2.04637469
 H   +3.62586553   -0.66170329   +3.15786899
 H   +4.63032209   +0.20619125   +2.00611504
 H   +2.50175702   +1.15365788   +0.97055976
 H   +2.70833108   -0.57229826   +0.80755154
 H   +1.26933874   -1.13912701   +2.67920966
 H   +1.05462878   +0.59046993   +3.09370739
 H   -0.95031967   -0.02139844   +1.84821240
 H   +0.91290936   +0.02302845   -0.57660686
 H   +1.47312852   -2.09581782   +3.04169834
22
 * E = +10.545 kcal/mol ; (52) 219_306_190_087_008
 C   +0.00000000   +0.00000000   +0.00000000
 C   +0.00000000   +0.00000000   +1.33046809
 C   +1.21291785   +0.00000000   +2.15305482
 C   +1.22351813   -0.84209008   +3.40679172
 C   +0.05828048   -0.53560045   +4.34605419
 C   +0.26506207   -1.23008701   +5.66329474
 O   +0.98815663   -0.61093266   +6.60480090
 C   +1.40603303   +0.72798111   +6.45643326
 O   -0.14186378   -2.33451813   +5.87866683
 H   +2.04588581   +0.93086493   +7.30626647
 H   -0.91951645   +0.02049422   -0.56333245
 H   +0.55867391   +1.40938720   +6.48055728
 H   +1.97171265   +0.88285459   +5.54072543
 H   -0.04950331   +0.54090074   +4.46357596
 H   -0.86814898   -0.92647111   +3.93947941
 H   +2.16936665   -0.67530839   +3.92268234
 H   +1.19879013   -1.90067388   +3.14895580
 H   +1.36550044   +1.14958640   +2.58762352
 H   +2.11149050   -0.14041730   +1.55713425
 H   -0.94986903   +0.03013758   +1.84908314
 H   +0.92191305   -0.02529014   -0.56334156
 H   +1.57573415   +2.04957239   +3.08998083
22
 * E = +10.708 kcal/mol ; (53) 010_181_179_090_006
 C   +0.00000000   +0.00000000   +0.00000000
 C   +0.00000000   +0.00000000   +1.33055866
 C   +1.19216517   +0.00000000   +2.18618098
 C   +2.52949146   +0.22300508   +1.53475653
 C   +3.67228021   +0.16475930   +2.54298252
 C   +4.99283833   +0.35813125   +1.84914671
 O   +5.48042820   +1.59919249   +1.72117499
 C   +4.84821157   +2.70851572   +2.31649650
 O   +5.59829093   -0.55153296   +1.36240112
 H   +5.39065036   +3.57820829   +1.96676166
 H   -0.92444047   -0.01606157   -0.55516515
 H   +4.91224201   +2.66542170   +3.40144444
 H   +3.80795021   +2.79569560   +2.01200131
 H   +3.51320401   +0.89123612   +3.33608562
 H   +3.70494469   -0.82250236   +2.99363662
 H   +2.52179162   +1.18633045   +1.01927655
 H   +2.70372686   -0.53290159   +0.77070709
 H   +1.26628159   -1.13947467   +2.69235940
 H   +1.05397185   +0.60253500   +3.08260805
 H   -0.94956621   -0.02247630   +1.84948656
 H   +0.91279913   +0.02179405   -0.57635331
 H   +1.43313253   -2.07636601   +3.09887470
22
 * E = +10.773 kcal/mol ; (54) 215_286_274_169_357
 C   +0.00000000   +0.00000000   +0.00000000
 C   +0.00000000   +0.00000000   +1.33004064
 C   +1.20467071   +0.00000000   +2.16645570
 C   +1.12344722   -0.77548800   +3.46413029
 C   +0.29006293   -0.08484349   +4.52979079
 C   +1.10222753   +0.90492999   +5.32862686
 O   +0.44355650   +1.74021677   +6.13954571
 C   -0.96379591   +1.75363906   +6.19945104
 O   +2.29696523   +0.94677483   +5.30273897
 H   -1.21665634   +2.43600518   +7.00136872
 H   -0.91894378   +0.01762536   -0.56453268
 H   -1.36927778   +0.77129806   +6.43002871
 H   -1.39713908   +2.12274606   +5.27259619
 H   -0.57786250   +0.40844171   +4.09475961
 H   -0.10675559   -0.81102175   +5.24110403
 H   +2.12205352   -0.92939990   +3.86181935
 H   +0.69910927   -1.75797405   +3.25645902
 H   +1.40654379   +1.19624206   +2.49193577
 H   +2.10192317   -0.21932277   +1.59487776
 H   -0.95389816   +0.02037432   +1.84553777
 H   +0.92281976   -0.01960081   -0.56202436
 H   +1.56818236   +2.17552457   +2.74513445
22
 * E = +11.180 kcal/mol ; (55) 220_301_185_269_354
 C   +0.00000000   +0.00000000   +0.00000000
 C   +0.00000000   +0.00000000   +1.33079853
 C   +1.21089424   +0.00000000   +2.15563482
 C   +1.22621952   -0.85433262   +3.40139901
 C   +0.13318331   -0.49078954   +4.40304255
 C   +0.28754372   -1.31058613   +5.65493174
 O   -0.34893307   -2.48597776   +5.73989718
 C   -1.24926284   -2.91470453   +4.74452263
 O   +0.99909472   -0.97387517   +6.55564663
 H   -1.52534303   -3.92654221   +5.01446409
 H   -0.91896439   +0.02642672   -0.56413333
 H   -0.79182975   -2.92496310   +3.75810076
 H   -2.14457298   -2.29714366   +4.72908779
 H   +0.25280462   +0.54747988   +4.69869922
 H   -0.85377792   -0.60626855   +3.96468065
 H   +2.18877813   -0.74166534   +3.89654706
 H   +1.14627839   -1.90542763   +3.11547557
 H   +1.36679053   +1.16290386   +2.58686599
 H   +2.10907189   -0.13681042   +1.55856971
 H   -0.95176059   +0.03641421   +1.84620187
 H   +0.92224581   -0.02602740   -0.56274006
 H   +1.56949382   +2.07950431   +3.01517847
22
 * E = +11.294 kcal/mol ; (56) 011_166_052_087_006
 C   +0.00000000   +0.00000000   +0.00000000
 C   +0.00000000   +0.00000000   +1.33066759
 C   +1.18915918   +0.00000000   +2.19090892
 C   +2.52181799   +0.25053901   +1.53312460
 C   +3.64033547   +0.57216664   +2.52358459
 C   +3.75236791   -0.44251636   +3.63101804
 O   +4.49884655   -1.53560913   +3.44164492
 C   +5.27890190   -1.70581684   +2.28076215
 O   +3.16445472   -0.31633437   +4.66644751
 H   +5.68903288   -2.70590952   +2.34667954
 H   -0.92361304   -0.02387241   -0.55626422
 H   +6.09747325   -0.99020915   +2.24723093
 H   +4.68342926   -1.62859086   +1.37520295
 H   +4.57982788   +0.69253379   +1.99049084
 H   +3.41517904   +1.51217113   +3.01799003
 H   +2.43502486   +1.09733905   +0.85148638
 H   +2.78669878   -0.60770155   +0.91454318
 H   +1.26293647   -1.15255037   +2.65192529
 H   +1.05118645   +0.56877312   +3.10743334
 H   -0.94985205   -0.03479656   +1.84818049
 H   +0.91266013   +0.02947840   -0.57679304
 H   +1.43458533   -2.13208827   +2.95427589
22
 * E = +11.314 kcal/mol ; (57) 080_303_182_178_359
 C   +0.00000000   +0.00000000   +0.00000000
 C   +0.00000000   +0.00000000   +1.32815303
 C   +1.20543219   +0.00000000   +2.18037339
 C   +1.92735042   +1.30376064   +2.42110096
 C   +2.37983198   +1.99203714   +1.15331011
 C   +3.12527942   +3.26181810   +1.45447115
 O   +3.62360440   +3.95217061   +0.42138496
 C   +3.47188437   +3.49842549   -0.90360584
 O   +3.28624199   +3.68255197   +2.56299325
 H   +3.93369449   +4.25345010   -1.52742048
 H   -0.92025028   +0.00004396   -0.56288300
 H   +2.42430870   +3.40366347   -1.17960130
 H   +3.97961338   +2.54979015   -1.06246854
 H   +3.01740089   +1.32879417   +0.56617775
 H   +1.52676539   +2.22688948   +0.51682193
 H   +2.79192206   +1.12081239   +3.05559530
 H   +1.28781526   +1.98330101   +2.98602500
 H   +2.08424145   -0.74075142   +1.56715088
 H   +1.05561270   -0.54666743   +3.10743244
 H   -0.95350397   -0.02235075   +1.84461591
 H   +0.92228636   -0.02655157   -0.56382164
 H   +2.76078014   -1.24186776   +1.10384552
22
 * E = +12.207 kcal/mol ; (58) 218_303_096_076_012
 C   +0.00000000   +0.00000000   +0.00000000
 C   +0.00000000   +0.00000000   +1.33090144
 C   +1.22059035   +0.00000000   +2.14222447
 C   +1.22903405   -0.81458491   +3.41592747
 C   +0.10816279   -0.43838379   +4.39882483
 C   -1.10142895   -1.32431506   +4.27920655
 O   -1.02746157   -2.55726704   +4.79890708
 C   +0.03197073   -2.94142630   +5.64563310
 O   -2.10705040   -0.99883772   +3.71728073
 H   -0.12112036   -3.99431944   +5.84761095
 H   -0.92127367   +0.01932600   -0.56052288
 H   +0.00064998   -2.39379407   +6.58509495
 H   +1.00345576   -2.80911245   +5.17676386
 H   +0.48351964   -0.47077505   +5.41859360
 H   -0.22814497   +0.57726972   +4.21316478
 H   +2.19027146   -0.66837528   +3.90483096
 H   +1.17182404   -1.87362199   +3.15856472
 H   +1.40050586   +1.15837263   +2.54663126
 H   +2.11389643   -0.17114683   +1.54578071
 H   -0.94475053   +0.02211328   +1.85892264
 H   +0.92079379   -0.02399704   -0.56603415
 H   +1.63443058   +2.07612864   +2.99520847
22
 * E = +12.931 kcal/mol ; (59) 082_317_289_158_359
 C   +0.00000000   +0.00000000   +0.00000000
 C   +0.00000000   +0.00000000   +1.32913698
 C   +1.21368148   +0.00000000   +2.16861880
 C   +1.92595745   +1.30966516   +2.43844630
 C   +2.06483915   +2.22667854   +1.24159326
 C   +3.04760831   +1.69822735   +0.23070810
 O   +2.95589638   +2.13423960   -1.03190560
 C   +1.95578477   +3.04674230   -1.42351695
 O   +3.92238147   +0.93308043   +0.51422235
 H   +2.18208901   +3.30673840   -2.45019903
 H   -0.92080723   -0.00768582   -0.56270914
 H   +1.97357177   +3.94905256   -0.81691873
 H   +0.96753442   +2.59325317   -1.38056055
 H   +1.09451762   +2.40480687   +0.78915515
 H   +2.44106059   +3.19907335   +1.56481976
 H   +2.91284872   +1.09095392   +2.84110774
 H   +1.37820736   +1.84869643   +3.21409591
 H   +2.06833374   -0.78673460   +1.55302375
 H   +1.07434447   -0.55399248   +3.09328267
 H   -0.95378347   -0.02778820   +1.84557658
 H   +0.92306247   -0.02994528   -0.56487325
 H   +2.64968187   -1.40156279   +1.13579643
22
 * E = +13.466 kcal/mol ; (60) 079_301_182_270_353
 C   +0.00000000   +0.00000000   +0.00000000
 C   +0.00000000   +0.00000000   +1.32860277
 C   +1.20516218   +0.00000000   +2.17993690
 C   +1.94639064   +1.29920873   +2.39179657
 C   +2.44503211   +1.94204346   +1.10267460
 C   +3.21275122   +3.19582128   +1.41792772
 O   +2.54869701   +4.35754796   +1.48255797
 C   +1.18853468   +4.45224283   +1.12616000
 O   +4.38369766   +3.18714806   +1.66392387
 H   +0.89218466   +5.46575720   +1.36687953
 H   -0.92120305   -0.00219076   -0.56145249
 H   +0.56950842   +3.75868954   +1.69015169
 H   +1.04666821   +4.28553988   +0.06084860
 H   +3.14152415   +1.26785448   +0.61213793
 H   +1.61587238   +2.12626455   +0.42654761
 H   +2.80104215   +1.11509662   +3.04032444
 H   +1.29694735   +1.99431301   +2.93094083
 H   +2.07546966   -0.76912073   +1.58788723
 H   +1.04721789   -0.52033979   +3.12067807
 H   -0.95344438   -0.02754020   +1.84494347
 H   +0.92097066   -0.02692522   -0.56536344
 H   +2.73833300   -1.30133010   +1.14495081
