22
 * E =  +0.000 kcal/mol ; (1) 240_063_072_192_182
 C   +0.00000000   +0.00000000   +0.00000000
 C   +0.00000000   +0.00000000   +1.32490854
 C   +1.21948267   +0.00000000   +2.18173780
 C   +1.30080967   -1.21857338   +3.10136897
 C   +1.41057452   -2.50645594   +2.34191784
 C   +2.71234787   -2.75053338   +1.68762631
 O   +2.65577309   -3.76402618   +0.82664877
 C   +3.88054798   -4.09233173   +0.19631771
 O   +3.72427000   -2.13810802   +1.91720863
 H   +3.66306802   -4.92771885   -0.45628875
 H   -0.91852564   +0.00015277   -0.56649940
 H   +4.62549513   -4.36851796   +0.93611208
 H   +4.25086130   -3.24709939   -0.37547872
 H   +1.33459194   -3.44782284   +3.21088914
 H   +0.57242611   -2.74951906   +1.69784332
 H   +0.41753322   -1.25556625   +3.73844137
 H   +2.16876670   -1.11474930   +3.74818025
 H   +1.21981534   +0.89370298   +2.80751523
 H   +2.11476038   +0.04635234   +1.56395681
 H   -0.95038117   -0.00723864   +1.84814651
 H   +0.92382072   +0.00808144   -0.56156259
 H   +1.23011800   -4.11888443   +3.91048753
22
 * E =  +0.047 kcal/mol ; (2) 241_181_072_194_182
 C   +0.00000000   +0.00000000   +0.00000000
 C   +0.00000000   +0.00000000   +1.32457537
 C   +1.22035645   +0.00000000   +2.17902922
 C   +1.29305028   -1.23415392   +3.07523146
 C   +2.50382768   -1.22023538   +3.95857115
 C   +2.47587754   -0.24208400   +5.06607077
 O   +3.67809876   -0.07036808   +5.61089376
 C   +3.72120503   +0.81365226   +6.71697048
 O   +1.48611294   +0.31706410   +5.46422584
 H   +4.75441480   +0.83593227   +7.03784225
 H   -0.91890357   -0.00198576   -0.56562717
 H   +3.08032730   +0.45268607   +7.51530636
 H   +3.39077851   +1.80481322   +6.42243081
 H   +2.52563247   -2.34797085   +4.56415139
 H   +3.46194391   -1.24304287   +3.44956133
 H   +1.30590000   -2.13015725   +2.45726595
 H   +0.40219191   -1.27760663   +3.69920536
 H   +1.21420345   +0.88525944   +2.81640141
 H   +2.10881894   +0.05610421   +1.55001841
 H   -0.94719996   -0.00690488   +1.85164844
 H   +0.92285743   +0.00713549   -0.56325808
 H   +2.51417627   -3.24017490   +4.96764408
22
 * E =  +0.115 kcal/mol ; (3) 122_300_086_199_182
 C   +0.00000000   +0.00000000   +0.00000000
 C   +0.00000000   +0.00000000   +1.32497658
 C   +1.22686660   +0.00000000   +2.17186740
 C   +1.30281357   +1.19373115   +3.12300120
 C   +1.31040224   +2.50846883   +2.40014738
 C   -0.01314470   +3.06801085   +2.05268302
 O   +0.07306808   +3.99230303   +1.09952948
 C   -1.15034728   +4.61049695   +0.74474077
 O   -1.04857517   +2.77239591   +2.59236217
 H   -0.90565624   +5.33196273   -0.02389538
 H   -0.91956102   +0.00205900   -0.56473736
 H   -1.59044733   +5.10315911   +1.60618161
 H   -1.85005131   +3.87174276   +0.36649590
 H   +1.77147600   +3.36941918   +3.22561477
 H   +2.02365754   +2.59426209   +1.58677765
 H   +2.20662260   +1.10612191   +3.72378712
 H   +0.45476628   +1.17911586   +3.80504218
 H   +2.11036253   -0.01960149   +1.53329001
 H   +1.25127363   -0.91045548   +2.77299836
 H   -0.94464519   +0.02346697   +1.85497039
 H   +0.92262594   -0.00817155   -0.56397484
 H   +2.17466294   +3.97110050   +3.88607014
22
 * E =  +0.181 kcal/mol ; (4) 119_296_187_193_182
 C   +0.00000000   +0.00000000   +0.00000000
 C   +0.00000000   +0.00000000   +1.32487107
 C   +1.21942794   +0.00000000   +2.18269274
 C   +1.31616321   +1.23063675   +3.07625867
 C   +1.44596868   +2.50417359   +2.29778993
 C   +1.71450015   +3.71813371   +3.09353347
 O   +1.53378516   +4.82929070   +2.38166777
 C   +1.82301900   +6.03710547   +3.06197707
 O   +2.08543721   +3.72457020   +4.23926340
 H   +1.63273843   +6.83037308   +2.35086992
 H   -0.91874645   +0.00209094   -0.56602864
 H   +2.85982634   +6.05213911   +3.38347075
 H   +1.18428337   +6.14338807   +3.93329861
 H   +2.50534108   +2.37758342   +1.59099899
 H   +0.70518745   +2.66083180   +1.52114620
 H   +2.16100423   +1.14125815   +3.75532271
 H   +0.42917367   +1.29483409   +3.71103068
 H   +2.10838822   -0.07064937   +1.55586925
 H   +1.21033455   -0.88513137   +2.81949130
 H   -0.94952381   +0.01044072   +1.84929881
 H   +0.92358455   -0.00855971   -0.56204666
 H   +3.31577620   +2.21018396   +1.05855066
22
 * E =  +0.273 kcal/mol ; (5) 118_176_072_194_182
 C   +0.00000000   +0.00000000   +0.00000000
 C   +0.00000000   +0.00000000   +1.32436122
 C   +1.22300469   +0.00000000   +2.17606211
 C   +1.31465139   +1.24951841   +3.04888848
 C   +2.49704939   +1.21167801   +3.96922589
 C   +3.81631458   +1.38506773   +3.32583546
 O   +4.81505824   +1.04800021   +4.13916427
 C   +6.11577331   +1.23936170   +3.61195335
 O   +3.98854503   +1.81117345   +2.21276965
 H   +6.79958546   +0.93119031   +4.39198228
 H   -0.91917601   +0.00609446   -0.56529731
 H   +6.27121388   +2.28298870   +3.35694000
 H   +6.25565189   +0.63565471   +2.72067997
 H   +2.40295520   +2.23967940   +4.72659216
 H   +2.49801225   +0.41461343   +4.70583795
 H   +0.40565023   +1.35080231   +3.64099070
 H   +1.38726923   +2.12471531   +2.40713376
 H   +2.10997290   -0.06526375   +1.54837322
 H   +1.21378910   -0.88172621   +2.82079431
 H   -0.94833584   +0.01145788   +1.85021545
 H   +0.92344013   -0.00507003   -0.56170874
 H   +2.25836524   +3.01715847   +5.30396140
22
 * E =  +0.391 kcal/mol ; (6) 001_177_072_194_183
 C   +0.00000000   +0.00000000   +0.00000000
 C   +0.00000000   +0.00000000   +1.32485605
 C   +1.20063477   +0.00000000   +2.21165463
 C   +2.53390166   +0.02648972   +1.48554487
 C   +3.69002948   +0.08580568   +2.43787167
 C   +3.96415487   -1.15308006   +3.19558274
 O   +4.79464127   -0.94031321   +4.21417468
 C   +5.15049933   -2.09339329   +4.95602214
 O   +3.52542381   -2.23997617   +2.91923726
 H   +5.82126812   -1.75026300   +5.73276574
 H   -0.92447069   -0.00395383   -0.55598561
 H   +5.64488235   -2.81761358   +4.31611494
 H   +4.26724426   -2.55273322   +5.38870878
 H   +4.74194544   +0.22942142   +1.72278300
 H   +3.74526054   +0.97271659   +3.06085499
 H   +2.57425513   +0.89065926   +0.82365573
 H   +2.62777554   -0.86608471   +0.86982950
 H   +1.16090684   -0.88385331   +2.85072145
 H   +1.13206793   +0.85752459   +2.88545389
 H   -0.95196737   -0.00439916   +1.84180500
 H   +0.91268910   -0.00140082   -0.57717530
 H   +5.50404200   +0.37929447   +1.12676697
22
 * E =  +0.486 kcal/mol ; (7) 121_179_189_196_182
 C   +0.00000000   +0.00000000   +0.00000000
 C   +0.00000000   +0.00000000   +1.32433510
 C   +1.22060573   +0.00000000   +2.17867072
 C   +1.28124315   +1.20978795   +3.09936189
 C   +2.49292766   +1.20336037   +3.98038515
 C   +2.52272665   +2.22863808   +5.04313264
 O   +3.74314399   +2.37681655   +5.55558689
 C   +3.84312458   +3.30565599   +6.62029899
 O   +1.56431616   +2.84145693   +5.43667107
 H   +4.88300248   +3.30181000   +6.91981822
 H   -0.91885635   +0.00315369   -0.56555671
 H   +3.20592192   +3.00504031   +7.44615548
 H   +3.54427845   +4.29512589   +6.28864833
 H   +2.44520375   +0.10620754   +4.64127125
 H   +3.44709585   +1.09815372   +3.47438914
 H   +0.39122445   +1.26309725   +3.72414610
 H   +1.28070505   +2.12263144   +2.50057056
 H   +2.10861934   -0.03524291   +1.54735450
 H   +1.23296966   -0.90503574   +2.79009343
 H   -0.94802017   +0.00806447   +1.85018745
 H   +0.92287520   -0.00605167   -0.56316378
 H   +2.36475521   -0.75760721   +5.10157468
22
 * E =  +0.613 kcal/mol ; (8) 239_183_188_194_182
 C   +0.00000000   +0.00000000   +0.00000000
 C   +0.00000000   +0.00000000   +1.32422854
 C   +1.22097547   +0.00000000   +2.17836654
 C   +1.28605861   -1.21150380   +3.09637717
 C   +2.47384334   -1.17658416   +4.00870656
 C   +2.70847073   -2.39426145   +4.81090346
 O   +3.57501029   -2.17736652   +5.79910034
 C   +3.89343461   -3.31279953   +6.58371896
 O   +2.21237881   -3.46928358   +4.59423979
 H   +4.60168321   -2.97010526   +7.32670879
 H   -0.91890631   -0.00387688   -0.56549354
 H   +4.33313465   -4.08916055   +5.96536374
 H   +3.00067305   -3.70674960   +7.05928686
 H   +3.50520702   -1.12732047   +3.24924195
 H   +2.60150607   -0.26617099   +4.58554859
 H   +1.30663809   -2.13020947   +2.51410815
 H   +0.37853832   -1.26346990   +3.70256434
 H   +1.23258845   +0.90669040   +2.78799204
 H   +2.10957475   +0.03449637   +1.54835100
 H   -0.94852103   -0.00827093   +1.84949759
 H   +0.92296749   +0.00453121   -0.56284248
 H   +4.25510156   -1.06811041   +2.61846676
22
 * E =  +0.615 kcal/mol ; (9) 359_181_188_194_182
 C   +0.00000000   +0.00000000   +0.00000000
 C   +0.00000000   +0.00000000   +1.32495012
 C   +1.20271795   +0.00000000   +2.20867651
 C   +2.53202368   -0.01992513   +1.48459889
 C   +3.69532151   -0.04727524   +2.42794687
 C   +5.02751970   +0.11431578   +1.81093162
 O   +6.00634947   -0.22391129   +2.64845894
 C   +7.31911515   -0.04611581   +2.14711885
 O   +5.22643688   +0.53132054   +0.69940827
 H   +7.98427218   -0.35988419   +2.94096183
 H   -0.92486668   +0.00160722   -0.55536364
 H   +7.48990702   +0.99564920   +1.89413617
 H   +7.47042144   -0.65209056   +1.25927380
 H   +3.58773981   +0.99931498   +3.16016304
 H   +3.67759970   -0.82748601   +3.18208155
 H   +2.62879000   +0.84393345   +0.82964366
 H   +2.58552114   -0.89658418   +0.83520212
 H   +1.13708526   -0.85869751   +2.88134587
 H   +1.15566268   +0.87644485   +2.85930846
 H   -0.95145229   +0.00189378   +1.84257620
 H   +0.91268964   +0.00112054   -0.57730236
 H   +3.44030394   +1.80350985   +3.70363948
22
 * E =  +0.679 kcal/mol ; (10) 116_062_069_195_183
 C   +0.00000000   +0.00000000   +0.00000000
 C   +0.00000000   +0.00000000   +1.32488609
 C   +1.22415977   +0.00000000   +2.17544421
 C   +1.37342811   +1.25367033   +3.03937613
 C   +0.25280866   +1.43985010   +4.01945889
 C   +0.20067236   +0.46023710   +5.12471317
 O   -0.97048996   +0.48319029   +5.75749273
 C   -1.07597478   -0.38978301   +6.86814638
 O   +1.11123028   -0.25763944   +5.45070519
 H   -2.07050825   -0.24120336   +7.26790230
 H   -0.91838374   -0.00144137   -0.56655783
 H   -0.32401786   -0.14764707   +7.61263980
 H   -0.94015001   -1.42001565   +6.55421409
 H   +0.48715127   +2.54313571   +4.61981923
 H   -0.72545688   +1.64526938   +3.59915808
 H   +1.43076299   +2.13045937   +2.39679661
 H   +2.30816743   +1.18305554   +3.59139135
 H   +2.10397838   -0.09114580   +1.54040286
 H   +1.21873794   -0.86875311   +2.83482136
 H   -0.95302003   -0.00407636   +1.84148056
 H   +0.92345833   -0.00382290   -0.56239061
 H   +0.69855515   +3.41468810   +5.01916024
22
 * E =  +0.869 kcal/mol ; (11) 120_176_290_186_181
 C   +0.00000000   +0.00000000   +0.00000000
 C   +0.00000000   +0.00000000   +1.32468593
 C   +1.21805003   +0.00000000   +2.18126581
 C   +1.28073329   +1.22541156   +3.08695685
 C   +2.44659952   +1.22222263   +4.03285363
 C   +2.40531880   +0.23066788   +5.12827095
 O   +3.41827036   +0.39241686   +5.97671510
 C   +3.46961984   -0.53743836   +7.04397966
 O   +1.57689572   -0.63505136   +5.25156162
 H   +4.34160420   -0.27100719   +7.62677245
 H   -0.91870047   -0.00374616   -0.56601825
 H   +3.56034937   -1.54904036   +6.66080780
 H   +2.57042304   -0.47018333   +7.64835620
 H   +3.48862833   +0.88529417   +3.34893249
 H   +2.76650487   +2.19524014   +4.38975952
 H   +0.36121376   +1.28237883   +3.67345506
 H   +1.32031836   +2.12444603   +2.47521796
 H   +2.10899798   -0.03642687   +1.55459883
 H   +1.22064402   -0.89115520   +2.80775377
 H   -0.94877936   -0.00019600   +1.84958453
 H   +0.92321306   -0.00205628   -0.56268995
 H   +4.25527734   +0.66381712   +2.79618066
22
 * E =  +0.921 kcal/mol ; (12) 236_062_173_193_182
 C   +0.00000000   +0.00000000   +0.00000000
 C   +0.00000000   +0.00000000   +1.32454261
 C   +1.22129527   +0.00000000   +2.17941073
 C   +1.27775941   -1.16216054   +3.16154211
 C   +1.32070826   -2.50543457   +2.49569239
 C   +1.54327292   -3.65143467   +3.39834223
 O   +1.84169764   -4.76351588   +2.72846622
 C   +2.01640238   -5.92083071   +3.52556693
 O   +1.43841952   -3.61356534   +4.59745970
 H   +2.24443084   -6.72341615   +2.83633826
 H   -0.91875959   +0.00354229   -0.56574332
 H   +1.10920430   -6.13935895   +4.08029251
 H   +2.83123255   -5.77752388   +4.22842891
 H   +0.14321930   -2.74678112   +2.03475361
 H   +1.90642986   -2.56641003   +1.58403415
 H   +0.43050154   -1.12792971   +3.84576148
 H   +2.16193488   -1.05868650   +3.79176241
 H   +1.25544430   +0.92775208   +2.75237582
 H   +2.10800320   -0.00847522   +1.54496257
 H   -0.94880311   -0.00284009   +1.84975806
 H   +0.92323339   -0.00032187   -0.56278976
 H   -0.76156345   -2.90313309   +1.71663589
22
 * E =  +0.982 kcal/mol ; (13) 351_290_185_193_182
 C   +0.00000000   +0.00000000   +0.00000000
 C   +0.00000000   +0.00000000   +1.32520802
 C   +1.19636080   +0.00000000   +2.22185634
 C   +2.53763292   -0.21752741   +1.54843021
 C   +2.71550616   -1.61347686   +1.02783223
 C   +4.04499471   -1.91844948   +0.46261275
 O   +4.04569890   -3.06263050   -0.21914116
 C   +5.30100907   -3.45117365   -0.74715037
 O   +5.03031596   -1.24354072   +0.61630900
 H   +5.12948092   -4.38926634   -1.25870031
 H   -0.92415588   +0.02298601   -0.55599117
 H   +6.02521858   -3.57791079   +0.05158185
 H   +5.66982802   -2.70028332   -1.43894441
 H   +2.65657638   -2.37305464   +2.05315095
 H   +1.90166119   -2.01176228   +0.43263378
 H   +3.34395543   -0.00387449   +2.24636698
 H   +2.66853435   +0.49265692   +0.72956705
 H   +1.05245175   -0.75683070   +2.99593940
 H   +1.21500015   +0.95191959   +2.75549474
 H   -0.95457500   +0.02172206   +1.83686176
 H   +0.91205803   -0.01774399   -0.57899183
 H   +2.58444354   -2.89911926   +2.88358361
22
 * E =  +1.006 kcal/mol ; (14) 241_181_068_028_178
 C   +0.00000000   +0.00000000   +0.00000000
 C   +0.00000000   +0.00000000   +1.32445576
 C   +1.22101355   +0.00000000   +2.17839785
 C   +1.29271900   -1.23165149   +3.07769622
 C   +2.51080163   -1.22308439   +3.95574610
 C   +2.60475403   -0.20703719   +5.02600078
 O   +1.40731442   +0.18867282   +5.45927472
 C   +1.42937196   +1.12374001   +6.52317250
 O   +3.63655814   +0.19884520   +5.49423803
 H   +0.39337265   +1.33564348   +6.75340711
 H   -0.91890574   -0.00421489   -0.56556143
 H   +1.94742814   +2.02858111   +6.22111999
 H   +1.93515330   +0.70211607   +7.38609890
 H   +2.48108106   -2.32636793   +4.60332360
 H   +3.46000672   -1.30250759   +3.43785669
 H   +1.30563289   -2.12754806   +2.45932755
 H   +0.39986204   -1.27987574   +3.69807813
 H   +1.21953221   +0.89025578   +2.81017012
 H   +2.10971997   +0.05410961   +1.55023201
 H   -0.94771718   -0.00991552   +1.85084784
 H   +0.92279806   +0.00872591   -0.56315873
 H   +2.42280681   -3.20228145   +5.03870752
22
 * E =  +1.024 kcal/mol ; (15) 239_184_293_187_181
 C   +0.00000000   +0.00000000   +0.00000000
 C   +0.00000000   +0.00000000   +1.32456107
 C   +1.22056474   +0.00000000   +2.17871162
 C   +1.27090324   -1.21745460   +3.09571222
 C   +2.43462662   -1.22710729   +4.04392590
 C   +3.77880191   -1.38147047   +3.44940991
 O   +4.71594132   -1.51766736   +4.38573046
 C   +6.04139973   -1.64318808   +3.90266671
 O   +4.02515090   -1.37340303   +2.27060763
 H   +6.66801465   -1.73995788   +4.77961053
 H   -0.91911974   -0.00042660   -0.56552191
 H   +6.32021696   -0.76494035   +3.32875000
 H   +6.13215081   -2.51995961   +3.26911031
 H   +2.47234678   -0.06330135   +4.60067766
 H   +2.31711858   -1.85028316   +4.92398417
 H   +1.30926597   -2.11940469   +2.48226613
 H   +0.35086078   -1.27316708   +3.67640219
 H   +1.22480248   +0.89938745   +2.79899650
 H   +2.11327963   +0.02778104   +1.55941209
 H   -0.95015792   -0.00468629   +1.84803765
 H   +0.92374317   +0.00144191   -0.56120375
 H   +2.43967284   +0.81030725   +5.02402667
22
 * E =  +1.060 kcal/mol ; (16) 119_296_183_026_178
 C   +0.00000000   +0.00000000   +0.00000000
 C   +0.00000000   +0.00000000   +1.32473373
 C   +1.21946058   +0.00000000   +2.18243076
 C   +1.31234410   +1.22574843   +3.08428332
 C   +1.45420867   +2.50184729   +2.30593459
 C   +1.62413534   +3.77006106   +3.04398439
 O   +2.17328236   +3.59175601   +4.24612210
 C   +2.40780761   +4.77808841   +4.98333527
 O   +1.34155803   +4.85673481   +2.61025707
 H   +2.84886604   +4.46284419   +5.92004503
 H   -0.91885807   +0.00203211   -0.56571571
 H   +1.47554017   +5.30609019   +5.15757536
 H   +3.08449636   +5.43199293   +4.44217268
 H   +2.55791836   +2.38621239   +1.67350438
 H   +0.75214618   +2.62888286   +1.48995437
 H   +2.15124780   +1.12320318   +3.76857163
 H   +0.41775111   +1.28700742   +3.70895881
 H   +2.10916942   -0.06297139   +1.55576407
 H   +1.21397546   -0.88910581   +2.81387724
 H   -0.94944915   +0.00968797   +1.84916792
 H   +0.92330586   -0.00706047   -0.56245118
 H   +3.40883349   +2.21810165   +1.20345507
22
 * E =  +1.069 kcal/mol ; (17) 246_300_195_195_183
 C   +0.00000000   +0.00000000   +0.00000000
 C   +0.00000000   +0.00000000   +1.32487222
 C   +1.22698978   +0.00000000   +2.17240806
 C   +1.41338236   -1.27288035   +2.99140770
 C   +0.29299857   -1.55006304   +3.94823926
 C   +0.57695519   -2.55840644   +4.99020210
 O   -0.53699036   -2.98698530   +5.58110987
 C   -0.34427945   -3.91620988   +6.63260302
 O   +1.67590963   -2.93383262   +5.30731211
 H   -1.33298597   -4.15300346   +7.00334223
 H   -0.91835669   -0.00311638   -0.56652652
 H   +0.26439666   -3.47860008   +7.41774059
 H   +0.14951070   -4.80926209   +6.26249366
 H   +0.12718427   -0.47565728   +4.62798240
 H   -0.69247624   -1.67526081   +3.51370051
 H   +2.34232981   -1.22045444   +3.55471107
 H   +1.51202338   -2.12368187   +2.31420716
 H   +1.19331596   +0.85108376   +2.85567165
 H   +2.10080126   +0.13926993   +1.53853833
 H   -0.95171087   +0.00150310   +1.84349182
 H   +0.92348029   +0.00740782   -0.56227782
 H   +0.02378736   +0.37972709   +5.10163545
22
 * E =  +1.141 kcal/mol ; (18) 357_182_292_187_181
 C   +0.00000000   +0.00000000   +0.00000000
 C   +0.00000000   +0.00000000   +1.32535552
 C   +1.19735786   +0.00000000   +2.21482910
 C   +2.52743745   -0.06644750   +1.48880936
 C   +3.71867767   -0.11127576   +2.40133005
 C   +3.99969576   +1.10254163   +3.19606998
 O   +5.15866255   +1.00606015   +3.84466321
 C   +5.49306704   +2.11728945   +4.65669657
 O   +3.28048967   +2.06522769   +3.27711201
 H   +6.44772906   +1.87826823   +5.10671566
 H   -0.92430389   +0.00703377   -0.55627723
 H   +4.73744144   +2.26890900   +5.42121058
 H   +5.56866148   +3.01725200   +4.05446960
 H   +3.47872554   -1.01467508   +3.29054511
 H   +4.62538832   -0.51676298   +1.96552589
 H   +2.62422279   +0.80325176   +0.83541110
 H   +2.54858644   -0.94610427   +0.84719438
 H   +1.11878550   -0.84761513   +2.89982465
 H   +1.17276412   +0.89175042   +2.84099937
 H   -0.95299632   +0.00951383   +1.84020381
 H   +0.91216575   -0.00392216   -0.57815099
 H   +3.27651748   -1.72961037   +3.91727058
22
 * E =  +1.150 kcal/mol ; (19) 119_176_068_028_178
 C   +0.00000000   +0.00000000   +0.00000000
 C   +0.00000000   +0.00000000   +1.32433129
 C   +1.22112381   +0.00000000   +2.17853161
 C   +1.29721481   +1.23430235   +3.07369263
 C   +2.48189412   +1.19445676   +3.99546434
 C   +3.83662469   +1.30743246   +3.41333226
 O   +3.84411082   +1.99056095   +2.26876469
 C   +5.12175794   +2.18136890   +1.68784190
 O   +4.83683648   +0.87288066   +3.92286282
 H   +4.95345413   +2.74716472   +0.78079160
 H   -0.91894178   +0.00376036   -0.56553233
 H   +5.58206430   +1.22437471   +1.46269259
 H   +5.76748679   +2.72925736   +2.36689866
 H   +2.39074567   +2.24141566   +4.72586303
 H   +2.46601378   +0.40812776   +4.74191847
 H   +0.38942342   +1.30609012   +3.67213892
 H   +1.34513842   +2.12507004   +2.45181778
 H   +2.10956529   -0.04896087   +1.55008361
 H   +1.22319073   -0.89269492   +2.80739472
 H   -0.94853685   +0.00906874   +1.84963623
 H   +0.92311510   -0.00657030   -0.56247177
 H   +2.24366274   +3.03653835   +5.27892131
22
 * E =  +1.170 kcal/mol ; (20) 117_294_077_032_180
 C   +0.00000000   +0.00000000   +0.00000000
 C   +0.00000000   +0.00000000   +1.32455581
 C   +1.22349668   +0.00000000   +2.17662433
 C   +1.35675326   +1.25185050   +3.04419584
 C   +1.57371659   +2.50102747   +2.23710302
 C   +0.42942919   +3.12328628   +1.53692542
 O   -0.71960764   +2.95627265   +2.19179004
 C   -1.85151349   +3.53830086   +1.57319160
 O   +0.51799036   +3.76258838   +0.52121120
 H   -2.68918746   +3.32618162   +2.22507989
 H   -0.91862571   +0.00735101   -0.56621275
 H   -2.00874212   +3.09970927   +0.59220348
 H   -1.71510401   +4.60929305   +1.46114686
 H   +1.91041683   +3.39769485   +3.08489643
 H   +2.43823547   +2.48057324   +1.58273316
 H   +2.20323576   +1.12169950   +3.71682888
 H   +0.47012169   +1.37033089   +3.66383638
 H   +2.10742157   -0.10548441   +1.54761964
 H   +1.20066599   -0.86734411   +2.83816449
 H   -0.94605201   +0.02041976   +1.85299976
 H   +0.92225530   -0.00510542   -0.56386507
 H   +2.20475681   +4.02397770   +3.77956249
22
 * E =  +1.211 kcal/mol ; (21) 001_179_068_027_178
 C   +0.00000000   +0.00000000   +0.00000000
 C   +0.00000000   +0.00000000   +1.32489587
 C   +1.20104610   +0.00000000   +2.21134520
 C   +2.53528671   +0.01266212   +1.48702375
 C   +3.69274185   +0.04430794   +2.44347376
 C   +3.95140245   -1.14450619   +3.28420096
 O   +3.52431649   -2.27241980   +2.71656568
 C   +3.79064346   -3.45570152   +3.44816738
 O   +4.51854088   -1.11958120   +4.34564147
 H   +3.38648042   -4.26695874   +2.85685692
 H   -0.92454064   -0.00055289   -0.55586120
 H   +3.31119077   -3.41523773   +4.42124293
 H   +4.85970045   -3.57986286   +3.58941130
 H   +4.74269753   +0.11969644   +1.71577218
 H   +3.78041296   +0.94478598   +3.04102798
 H   +2.59116794   +0.88735043   +0.84010050
 H   +2.61392235   -0.86714585   +0.85171858
 H   +1.15198165   -0.87734351   +2.85992734
 H   +1.13867969   +0.86096402   +2.88066020
 H   -0.95182621   -0.00056751   +1.84207520
 H   +0.91265612   -0.00112259   -0.57728229
 H   +5.50153227   +0.21669765   +1.10430654
22
 * E =  +1.247 kcal/mol ; (22) 120_178_184_028_178
 C   +0.00000000   +0.00000000   +0.00000000
 C   +0.00000000   +0.00000000   +1.32435966
 C   +1.22104477   +0.00000000   +2.17801685
 C   +1.29327602   +1.21945043   +3.08570781
 C   +2.50608678   +1.19587197   +3.97033392
 C   +2.67987971   +2.26804099   +4.97214858
 O   +1.51812007   +2.77632062   +5.38135270
 C   +1.61562946   +3.77724817   +6.37897675
 O   +3.74228181   +2.62701245   +5.40958285
 H   +0.59926784   +4.07865876   +6.59655055
 H   -0.91881779   +0.00354854   -0.56563015
 H   +2.19499746   +4.61955912   +6.01428678
 H   +2.09609889   +3.37965966   +7.26743282
 H   +2.37642210   +0.14613947   +4.69102091
 H   +3.44670958   +1.00102333   +3.46722003
 H   +0.39824482   +1.28746302   +3.70161652
 H   +1.30994711   +2.12388262   +2.47427049
 H   +2.10879058   -0.04744573   +1.54744877
 H   +1.22765868   -0.89792478   +2.79997067
 H   -0.94816131   +0.00821228   +1.85006511
 H   +0.92287642   -0.00729720   -0.56305478
 H   +2.22001005   -0.68482000   +5.19344337
22
 * E =  +1.324 kcal/mol ; (23) 240_183_184_027_178
 C   +0.00000000   +0.00000000   +0.00000000
 C   +0.00000000   +0.00000000   +1.32429349
 C   +1.22080787   +0.00000000   +2.17856145
 C   +1.29277814   -1.22129665   +3.08386088
 C   +2.48983098   -1.18687154   +3.98936443
 C   +2.74784520   -2.34083089   +4.87572525
 O   +2.26191906   -3.47969042   +4.38408711
 C   +2.51947561   -4.63298190   +5.16518681
 O   +3.36045933   -2.28223835   +5.91028345
 H   +2.06175266   -5.45794854   +4.63501660
 H   -0.91890499   -0.00401137   -0.56551290
 H   +2.08517391   -4.52492683   +6.15406109
 H   +3.58881932   -4.78924408   +5.26714647
 H   +3.50472738   -1.19064750   +3.20959864
 H   +2.63698028   -0.26009032   +4.53294862
 H   +1.31093980   -2.12972742   +2.48598770
 H   +0.38747562   -1.27779287   +3.69334268
 H   +1.22736727   +0.89954633   +2.79827457
 H   +2.10970980   +0.04491575   +1.54960950
 H   -0.94866693   -0.00834172   +1.84937382
 H   +0.92297641   +0.00658203   -0.56280593
 H   +4.23732174   -1.17413099   +2.55361912
22
 * E =  +1.402 kcal/mol ; (24) 359_180_183_027_178
 C   +0.00000000   +0.00000000   +0.00000000
 C   +0.00000000   +0.00000000   +1.32496257
 C   +1.20222863   +0.00000000   +2.20911769
 C   +2.53272145   -0.01294419   +1.48638982
 C   +3.69101413   -0.02331014   +2.44128003
 C   +5.06374320   +0.03729518   +1.89749272
 O   +5.11695804   +0.64564083   +0.71324227
 C   +6.41484034   +0.77935269   +0.16155144
 O   +6.04082694   -0.37650680   +2.46579835
 H   +7.04786025   +1.36326675   +0.82232280
 H   -0.92458660   +0.00074282   -0.55576009
 H   +6.28318280   +1.28462754   -0.78636217
 H   +6.86633425   -0.19692550   +0.01596872
 H   +3.59637991   +1.06751696   +3.10313693
 H   +3.63816088   -0.76246091   +3.23302944
 H   +2.61568464   +0.84880757   +0.82703817
 H   +2.59247753   -0.89480932   +0.84435282
 H   +1.13992871   -0.86148181   +2.87820766
 H   +1.15281738   +0.87396464   +2.86295771
 H   -0.95162947   +0.00099727   +1.84215511
 H   +0.91274808   +0.00053366   -0.57722048
 H   +3.44984935   +1.91157503   +3.58722695
22
 * E =  +1.519 kcal/mol ; (25) 115_063_172_192_182
 C   +0.00000000   +0.00000000   +0.00000000
 C   +0.00000000   +0.00000000   +1.32474970
 C   +1.22790570   +0.00000000   +2.17125296
 C   +1.40192721   +1.25573977   +3.01645361
 C   +0.31132925   +1.46972481   +4.02442430
 C   +0.54765852   +2.56552878   +4.98676031
 O   -0.32492195   +2.53978191   +5.99260118
 C   -0.19528426   +3.59141711   +6.93255043
 O   +1.40017610   +3.40774666   +4.87489027
 H   -0.97061473   +3.42711176   +7.66940292
 H   -0.91881737   +0.00219357   -0.56568096
 H   -0.32765276   +4.55265986   +6.44584004
 H   +0.78547919   +3.56530895   +7.39710718
 H   -0.73210012   +1.88738829   +3.39938886
 H   -0.07848057   +0.57599768   +4.50261840
 H   +1.47916591   +2.13381517   +2.37755637
 H   +2.35076479   +1.19641847   +3.55168556
 H   +2.10202701   -0.11667436   +1.53298418
 H   +1.20703659   -0.86725596   +2.83528713
 H   -0.95100314   -0.00081820   +1.84381890
 H   +0.92318498   -0.00250177   -0.56280766
 H   -1.50367061   +2.21699072   +2.90315270
22
 * E =  +1.537 kcal/mol ; (26) 116_060_065_030_178
 C   +0.00000000   +0.00000000   +0.00000000
 C   +0.00000000   +0.00000000   +1.32471364
 C   +1.22660041   +0.00000000   +2.17247861
 C   +1.38464266   +1.25952079   +3.02596631
 C   +0.24933583   +1.47439500   +3.98742975
 C   +0.04474580   +0.48532701   +5.06728071
 O   +1.18390553   -0.09116435   +5.45151830
 C   +1.06319731   -1.01260829   +6.52068325
 O   -1.01680669   +0.24257204   +5.58040224
 H   +2.06260806   -1.38387516   +6.70646979
 H   -0.91877613   -0.00004493   -0.56580150
 H   +0.39743185   -1.82509565   +6.24687776
 H   +0.66821854   -0.51823643   +7.40261720
 H   +0.53996069   +2.54523818   +4.62279851
 H   -0.70258317   +1.74093623   +3.54403411
 H   +1.45780199   +2.12790494   +2.37351240
 H   +2.31521624   +1.18858401   +3.58465532
 H   +2.10533524   -0.10414379   +1.53776374
 H   +1.21329935   -0.86627129   +2.83641105
 H   -0.95088246   -0.00322673   +1.84466187
 H   +0.92310530   -0.00455550   -0.56306708
 H   +0.80318936   +3.38894797   +5.04761464
22
 * E =  +1.643 kcal/mol ; (27) 117_306_308_186_182
 C   +0.00000000   +0.00000000   +0.00000000
 C   +0.00000000   +0.00000000   +1.32512000
 C   +1.23334567   +0.00000000   +2.16170725
 C   +1.37798885   +1.24561673   +3.03483544
 C   +1.31432313   +2.56901281   +2.32715713
 C   +2.18587778   +2.79902610   +1.15859061
 O   +2.09543622   +4.05948639   +0.73348221
 C   +2.87004822   +4.37058212   -0.40966978
 O   +2.88834302   +1.98003222   +0.62221689
 H   +2.68259813   +5.41577538   -0.61868012
 H   -0.91879129   +0.00246905   -0.56647467
 H   +2.56941820   +3.75357879   -1.25078636
 H   +3.92422717   +4.20373370   -0.21105725
 H   +0.11787018   +2.70721729   +1.84736705
 H   +1.31911488   +3.42703888   +2.99139310
 H   +2.32765884   +1.18281863   +3.56969157
 H   +0.60123557   +1.24826222   +3.80006171
 H   +2.10368870   -0.09860644   +1.52144505
 H   +1.21689641   -0.86335663   +2.82849458
 H   -0.94784045   +0.01410671   +1.85251203
 H   +0.92768141   +0.00180667   -0.55515027
 H   -0.79425438   +2.83953825   +1.57596556
22
 * E =  +1.710 kcal/mol ; (28) 237_063_171_027_178
 C   +0.00000000   +0.00000000   +0.00000000
 C   +0.00000000   +0.00000000   +1.32445986
 C   +1.22172154   +0.00000000   +2.17856629
 C   +1.28341179   -1.16827276   +3.15420143
 C   +1.33935837   -2.50675842   +2.47243064
 C   +1.59831605   -3.70177786   +3.29990728
 O   +1.19771069   -3.53998391   +4.56166896
 C   +1.37039270   -4.66942136   +5.39856451
 O   +2.07745542   -4.72810331   +2.89248212
 H   +1.00166823   -4.37581329   +6.37282146
 H   -0.91882257   +0.00295556   -0.56558286
 H   +2.41926211   -4.94366649   +5.45290855
 H   +0.80712819   -5.51416426   +5.01453551
 H   +0.15809644   -2.74348242   +2.02497031
 H   +1.92356816   -2.54478571   +1.55969338
 H   +0.43241247   -1.14261880   +3.83399800
 H   +2.16701935   -1.05616705   +3.78442772
 H   +1.25295568   +0.92461903   +2.75686680
 H   +2.10832544   -0.00276581   +1.54419509
 H   -0.94873081   -0.00311311   +1.84976961
 H   +0.92308342   -0.00082501   -0.56290190
 H   -0.75565672   -2.89265995   +1.72121813
22
 * E =  +1.772 kcal/mol ; (29) 348_293_121_190_182
 C   +0.00000000   +0.00000000   +0.00000000
 C   +0.00000000   +0.00000000   +1.32563419
 C   +1.20420124   +0.00000000   +2.20993264
 C   +2.52740729   -0.27741599   +1.51811664
 C   +2.62300446   -1.68183050   +0.97745411
 C   +2.85429773   -1.83579069   -0.47540581
 O   +2.70713972   -3.09984560   -0.86238589
 C   +2.96017042   -3.34850451   -2.23355228
 O   +3.17374444   -0.95129316   -1.22821250
 H   +2.80832336   -4.41064682   -2.37435131
 H   -0.92737307   +0.01807097   -0.55153544
 H   +3.97822629   -3.07021426   -2.48745619
 H   +2.27495496   -2.77930940   -2.85389407
 H   +3.66309394   -2.20751900   +1.46795896
 H   +1.86661743   -2.37364909   +1.33451238
 H   +3.33091373   -0.10784627   +2.23384133
 H   +2.69664300   +0.42457417   +0.70329011
 H   +1.05385918   -0.73235718   +3.00632365
 H   +1.25868937   +0.96498085   +2.71800094
 H   -0.95196589   +0.01913933   +1.84252764
 H   +0.91129274   -0.00331355   -0.58022084
 H   +4.47264211   -2.57043586   +1.91854217
22
 * E =  +1.890 kcal/mol ; (30) 240_299_091_202_183
 C   +0.00000000   +0.00000000   +0.00000000
 C   +0.00000000   +0.00000000   +1.32398239
 C   +1.22520423   +0.00000000   +2.17328625
 C   +1.34414903   -1.20830296   +3.10229261
 C   +0.21575820   -1.31096701   +4.08876679
 C   -0.95733650   -2.10789727   +3.66852877
 O   -2.05060396   -1.78174392   +4.35749130
 C   -3.20174907   -2.55286323   +4.06256919
 O   -0.93836810   -2.97981118   +2.83988148
 H   -3.98744249   -2.16737250   +4.69910740
 H   -0.91861000   +0.00162301   -0.56573583
 H   -3.01854988   -3.60190041   +4.27325822
 H   -3.47029881   -2.44739054   +3.01608983
 H   +0.66016005   -1.98203295   +5.07300637
 H   -0.06558058   -0.38450123   +4.57981712
 H   +2.28504066   -1.12944569   +3.64530126
 H   +1.37761322   -2.12524123   +2.51808301
 H   +1.23829386   +0.90651981   +2.78303041
 H   +2.10603195   +0.04005749   +1.53417390
 H   -0.95187767   +0.01010935   +1.84292445
 H   +0.92310172   -0.00698634   -0.56271290
 H   +1.07977696   -2.46473735   +5.82608044
22
 * E =  +1.952 kcal/mol ; (31) 245_297_187_028_178
 C   +0.00000000   +0.00000000   +0.00000000
 C   +0.00000000   +0.00000000   +1.32480891
 C   +1.22882923   +0.00000000   +2.17006989
 C   +1.41164582   -1.26814563   +2.99817161
 C   +0.32052982   -1.48849593   +4.00689649
 C   +0.46565311   -2.59152271   +4.98024817
 O   +1.73998950   -2.88206281   +5.23924732
 C   +1.94280779   -3.89910842   +6.20416207
 O   -0.45495988   -3.14858018   +5.51977533
 H   +3.01534671   -4.01095020   +6.29566457
 H   -0.91857501   -0.00382222   -0.56605763
 H   +1.48757152   -4.82815429   +5.87588375
 H   +1.50507335   -3.61090634   +7.15473933
 H   +0.33344505   -0.44637574   +4.75090225
 H   -0.69250964   -1.47431426   +3.62309660
 H   +2.36782532   -1.23179276   +3.51497460
 H   +1.45380303   -2.12935800   +2.32811584
 H   +1.20422011   +0.85668705   +2.84686939
 H   +2.10067598   +0.12888119   +1.53115213
 H   -0.95191037   +0.00136538   +1.84231356
 H   +0.92324752   +0.00810324   -0.56273240
 H   +0.38375720   +0.38816553   +5.26972418
22
 * E =  +2.242 kcal/mol ; (32) 115_063_171_026_178
 C   +0.00000000   +0.00000000   +0.00000000
 C   +0.00000000   +0.00000000   +1.32476543
 C   +1.22855434   +0.00000000   +2.17018955
 C   +1.40615013   +1.25835994   +3.01216867
 C   +0.31123789   +1.47235842   +4.02033242
 C   +0.48885713   +2.53931317   +5.02769985
 O   +1.29369287   +3.51082739   +4.59924888
 C   +1.46745940   +4.59163524   +5.49825962
 O   -0.05487551   +2.56351888   +6.10115760
 H   +2.13813813   +5.28268795   +5.00446892
 H   -0.91886679   +0.00106895   -0.56555345
 H   +1.89700798   +4.24213899   +6.43182977
 H   +0.51394003   +5.06644097   +5.70705301
 H   -0.71730120   +1.89395403   +3.37901793
 H   -0.07499881   +0.57577795   +4.49370170
 H   +1.48442746   +2.13298638   +2.36893673
 H   +2.35666945   +1.19054121   +3.54427025
 H   +2.10204650   -0.12017550   +1.53155417
 H   +1.20646409   -0.86443990   +2.83753656
 H   -0.95058860   -0.00217964   +1.84428792
 H   +0.92312744   -0.00263954   -0.56296774
 H   -1.47695572   +2.23048645   +2.86278996
22
 * E =  +2.256 kcal/mol ; (33) 249_300_303_187_181
 C   +0.00000000   +0.00000000   +0.00000000
 C   +0.00000000   +0.00000000   +1.32531745
 C   +1.22543014   +0.00000000   +2.17372315
 C   +1.45832376   -1.30241413   +2.93925728
 C   +0.39204121   -1.73305728   +3.90598701
 C   +0.01650461   -0.80454553   +4.99173495
 O   -0.83014121   -1.37572314   +5.84729125
 C   -1.26888578   -0.54865229   +6.90991681
 O   +0.39661037   +0.33258401   +5.10957983
 H   -1.94446181   -1.15608485   +7.49784943
 H   -0.91844342   +0.00736928   -0.56647427
 H   -1.78106246   +0.32662113   +6.52257769
 H   -0.42514515   -0.22422226   +7.51093860
 H   -0.71460394   -1.92922523   +3.26051095
 H   +0.52429967   -2.74040335   +4.28736768
 H   +2.39277938   -1.20573676   +3.49615426
 H   +1.60592393   -2.11192258   +2.22575231
 H   +1.17546322   +0.81949179   +2.88683744
 H   +2.09493373   +0.17092292   +1.54063324
 H   -0.95159985   +0.01412666   +1.84219221
 H   +0.92349160   -0.00174981   -0.56268560
 H   -1.51955681   -2.15642587   +2.78210354
22
 * E =  +2.274 kcal/mol ; (34) 121_176_283_015_179
 C   +0.00000000   +0.00000000   +0.00000000
 C   +0.00000000   +0.00000000   +1.32459026
 C   +1.21827209   +0.00000000   +2.18117934
 C   +1.26961601   +1.21444783   +3.10291847
 C   +2.42438432   +1.21689138   +4.06869570
 C   +2.38193209   +0.35733411   +5.27248825
 O   +1.43723757   -0.58169141   +5.21252931
 C   +1.37581358   -1.44740176   +6.33268395
 O   +3.13206451   +0.46884740   +6.20686880
 H   +0.57184553   -2.14201533   +6.12669121
 H   -0.91871688   -0.00335329   -0.56592135
 H   +1.17119388   -0.88214307   +7.23641541
 H   +2.31671890   -1.97457012   +6.45444534
 H   +3.44550144   +0.76831258   +3.42971139
 H   +2.79443870   +2.19636922   +4.34790595
 H   +0.33851203   +1.27119224   +3.67054479
 H   +1.31826020   +2.11588228   +2.49538988
 H   +2.10926343   -0.01998524   +1.55441865
 H   +1.23270238   -0.90206274   +2.79178377
 H   -0.94932002   +0.00037000   +1.84881048
 H   +0.92311305   -0.00059187   -0.56274752
 H   +4.21141109   +0.45430718   +2.91076924
22
 * E =  +2.414 kcal/mol ; (35) 237_183_285_016_179
 C   +0.00000000   +0.00000000   +0.00000000
 C   +0.00000000   +0.00000000   +1.32451313
 C   +1.21767616   +0.00000000   +2.18258274
 C   +1.23478942   -1.18681232   +3.14093107
 C   +2.39804017   -1.21587604   +4.09547718
 C   +3.74509031   -1.59342665   +3.61429449
 O   +3.85637797   -1.55921798   +2.28660992
 C   +5.13742325   -1.89175611   +1.78056032
 O   +4.66191093   -1.88218643   +4.33865720
 H   +5.05939003   -1.81657516   +0.70373306
 H   -0.91888221   +0.00393182   -0.56567121
 H   +5.40986599   -2.90035054   +2.07485454
 H   +5.88426520   -1.20188564   +2.16054275
 H   +2.56378257   -0.01046679   +4.51267269
 H   +2.20954923   -1.71539800   +5.03855202
 H   +1.22774119   -2.11058800   +2.55985829
 H   +0.31532592   -1.18220271   +3.72506238
 H   +1.23994502   +0.91872553   +2.77287237
 H   +2.11191706   -0.00708140   +1.56444582
 H   -0.95073062   +0.00087078   +1.84676332
 H   +0.92324371   -0.00149024   -0.56227157
 H   +2.63839302   +0.90684836   +4.83778381
22
 * E =  +2.488 kcal/mol ; (36) 357_180_284_016_179
 C   +0.00000000   +0.00000000   +0.00000000
 C   +0.00000000   +0.00000000   +1.32534156
 C   +1.19743364   +0.00000000   +2.21511940
 C   +2.52866223   -0.06454611   +1.48989156
 C   +3.73281966   -0.07331747   +2.39308069
 C   +4.17346828   +1.17522396   +3.05345290
 O   +3.24734937   +2.13357229   +3.03252629
 C   +3.61545884   +3.34256834   +3.67334534
 O   +5.24681675   +1.31638213   +3.57927765
 H   +2.76567087   +4.00438034   +3.56793483
 H   -0.92449947   +0.00398238   -0.55595398
 H   +4.49377987   +3.76913336   +3.19933523
 H   +3.83497225   +3.16288217   +4.72102582
 H   +3.45207738   -0.84287807   +3.38468087
 H   +4.60167070   -0.58747267   +1.99935204
 H   +2.60877334   +0.78535181   +0.80914505
 H   +2.55434655   -0.96162972   +0.87322456
 H   +1.12000880   -0.84867767   +2.89833225
 H   +1.16674519   +0.88850090   +2.84586986
 H   -0.95314468   +0.00648076   +1.84008606
 H   +0.91200790   -0.00467959   -0.57828700
 H   +3.22389802   -1.46026864   +4.10569142
22
 * E =  +3.289 kcal/mol ; (37) 012_079_180_028_178
 C   +0.00000000   +0.00000000   +0.00000000
 C   +0.00000000   +0.00000000   +1.32435297
 C   +1.19379544   +0.00000000   +2.22482968
 C   +2.54030411   +0.27492919   +1.57821865
 C   +2.80010966   +1.72894478   +1.29660757
 C   +4.08761049   +2.10140041   +0.67652824
 O   +4.59146067   +1.12413711   -0.07839487
 C   +5.80188073   +1.43909647   -0.74298880
 O   +4.61706403   +3.17626396   +0.79246716
 H   +6.07081961   +0.55381106   -1.30449003
 H   -0.92466193   -0.02635032   -0.55501427
 H   +6.57609748   +1.68550098   -0.02317093
 H   +5.65925446   +2.28561699   -1.40732656
 H   +1.95495276   +2.16168507   +0.40933170
 H   +2.57761614   +2.40129521   +2.11774115
 H   +2.66680349   -0.31172751   +0.67117168
 H   +3.32349148   -0.07022061   +2.25654701
 H   +1.23193157   -0.97282462   +2.71893974
 H   +1.02612794   +0.71771387   +3.03034518
 H   -0.95408529   -0.03129455   +1.83635363
 H   +0.91036870   +0.03204139   -0.58014888
 H   +1.35028279   +2.53826936   -0.23688032
22
 * E =  +3.391 kcal/mol ; (38) 129_291_290_014_179
 C   +0.00000000   +0.00000000   +0.00000000
 C   +0.00000000   +0.00000000   +1.32467522
 C   +1.22047124   +0.00000000   +2.18029321
 C   +1.22340515   +1.08595776   +3.25469222
 C   +1.34297416   +2.51019905   +2.78396782
 C   +2.61380217   +3.00964900   +2.22008620
 O   +3.47416202   +2.03788443   +1.90965504
 C   +4.69709601   +2.47593360   +1.34459715
 O   +2.85574227   +4.17436159   +2.03463623
 H   +5.27152117   +1.57958143   +1.14919364
 H   -0.91857733   -0.02037714   -0.56578668
 H   +5.22399908   +3.12391744   +2.03796246
 H   +4.51423007   +3.02275598   +0.42498385
 H   +0.49787696   +2.70979407   +1.81204951
 H   +0.95788171   +3.24630020   +3.48014916
 H   +2.04694985   +0.88599790   +3.94253557
 H   +0.30957514   +1.00098355   +3.84215182
 H   +2.11076288   +0.08019099   +1.56271594
 H   +1.27882707   -0.96002507   +2.69667028
 H   -0.95047318   -0.01680562   +1.84749656
 H   +0.92302065   +0.02226302   -0.56219683
 H   -0.15307910   +2.90546137   +1.13976749
22
 * E =  +3.406 kcal/mol ; (39) 239_061_267_004_178
 C   +0.00000000   +0.00000000   +0.00000000
 C   +0.00000000   +0.00000000   +1.32487004
 C   +1.22538089   +0.00000000   +2.17169076
 C   +1.32377377   -1.20051023   +3.11538360
 C   +1.37623931   -2.53918142   +2.42424782
 C   +0.13633755   -3.31269112   +2.18644412
 O   -0.97152498   -2.66767006   +2.54910599
 C   -2.17957350   -3.36180532   +2.29681875
 O   +0.11981901   -4.41582880   +1.70497069
 H   -2.97295695   -2.71542073   +2.64956944
 H   -0.91880573   +0.00507940   -0.56600127
 H   -2.19126489   -4.30775663   +2.82904965
 H   -2.28724163   -3.55613708   +1.23430845
 H   +1.80804024   -2.34602279   +1.22365852
 H   +2.14800289   -3.21542418   +2.77332508
 H   +0.47352272   -1.18684540   +3.79703535
 H   +2.21845074   -1.08301214   +3.72256983
 H   +1.24145626   +0.90467392   +2.78105742
 H   +2.10812605   +0.03325209   +1.53319648
 H   -0.94466041   -0.00882978   +1.85422725
 H   +0.92311258   -0.00396428   -0.56283854
 H   +2.16577134   -2.19935421   +0.33560304
22
 * E =  +3.824 kcal/mol ; (40) 242_280_284_016_179
 C   +0.00000000   +0.00000000   +0.00000000
 C   +0.00000000   +0.00000000   +1.32515966
 C   +1.23169008   +0.00000000   +2.16613078
 C   +1.37173784   -1.24121454   +3.05162705
 C   +0.55949583   -1.25333341   +4.32037196
 C   +1.00403948   -0.44112567   +5.47590587
 O   +1.90614446   +0.48408397   +5.14813124
 C   +2.34211081   +1.30640867   +6.21663060
 O   +0.58302974   -0.57464731   +6.59518544
 H   +3.05928845   +1.99408058   +5.78767476
 H   -0.91901992   -0.00102416   -0.56548503
 H   +2.80526664   +0.70443591   +6.99201753
 H   +1.50288349   +1.84490154   +6.64530923
 H   -0.61761481   -0.76999210   +4.09717060
 H   +0.27309699   -2.23741269   +4.67278379
 H   +2.42046575   -1.34206227   +3.33488628
 H   +1.12121910   -2.12293944   +2.46557046
 H   +1.25710032   +0.88740221   +2.79755536
 H   +2.09922718   +0.05780685   +1.51086323
 H   -0.95066701   -0.00098379   +1.84353915
 H   +0.92274549   +0.00666577   -0.56374726
 H   -1.52424753   -0.44214293   +3.99057339
22
 * E =  +4.271 kcal/mol ; (41) 122_065_257_020_178
 C   +0.00000000   +0.00000000   +0.00000000
 C   +0.00000000   +0.00000000   +1.32450665
 C   +1.22806065   +0.00000000   +2.16777339
 C   +1.32822604   +1.18400315   +3.13111388
 C   +0.26572384   +1.23678602   +4.20629546
 C   -0.87124034   +2.17720149   +4.08092950
 O   -1.07327165   +2.58371340   +2.83024066
 C   -2.17582396   +3.45279456   +2.64489623
 O   -1.56876466   +2.51644688   +5.00175738
 H   -3.09582913   +2.96805691   +2.95628658
 H   -0.91905450   -0.00695840   -0.56533794
 H   -2.20029957   +3.67711976   +1.58651155
 H   -2.04385641   +4.35990739   +3.22636772
 H   -0.32349623   +0.10407954   +4.23628513
 H   +0.63492808   +1.27257301   +5.22418915
 H   +1.29507973   +2.10601078   +2.55330985
 H   +2.30181197   +1.14135454   +3.61448582
 H   +2.10579805   -0.00227620   +1.52372835
 H   +1.26343215   -0.92231079   +2.75215896
 H   -0.94806632   -0.00160729   +1.84851850
 H   +0.92248523   +0.00431769   -0.56391544
 H   -0.74790182   -0.78747612   +4.27447084
22
 * E =  +7.629 kcal/mol ; (42) 240_061_072_188_003
 C   +0.00000000   +0.00000000   +0.00000000
 C   +0.00000000   +0.00000000   +1.32540975
 C   +1.22154885   +0.00000000   +2.17956478
 C   +1.30247526   -1.21847617   +3.09967965
 C   +1.36223954   -2.50584294   +2.33245532
 C   +2.65258849   -2.76138713   +1.64135254
 O   +2.73359643   -3.80565140   +0.81053045
 C   +1.61221166   -4.61938701   +0.54808517
 O   +3.62730100   -2.08591938   +1.82578389
 H   +1.97853863   -5.43386072   -0.06423539
 H   -0.91883093   +0.00500882   -0.56630462
 H   +0.85041920   -4.07481312   -0.00571274
 H   +1.18670600   -5.02612846   +1.46196339
 H   +1.27512269   -3.45096208   +3.20317304
 H   +0.48502292   -2.69983547   +1.72376848
 H   +0.43370961   -1.23977558   +3.75732538
 H   +2.18930819   -1.13310288   +3.72207225
 H   +1.22427359   +0.89356622   +2.80527686
 H   +2.11580005   +0.04045334   +1.56119084
 H   -0.95049181   -0.00420334   +1.84887482
 H   +0.92422206   +0.00945996   -0.56095651
 H   +1.15882608   -4.12127554   +3.90160048
22
 * E =  +7.976 kcal/mol ; (43) 120_296_184_185_003
 C   +0.00000000   +0.00000000   +0.00000000
 C   +0.00000000   +0.00000000   +1.32516145
 C   +1.21865492   +0.00000000   +2.18420037
 C   +1.29922233   +1.21550591   +3.09903821
 C   +1.41669694   +2.50304781   +2.34152515
 C   +1.59029678   +3.71093973   +3.18744221
 O   +1.59961361   +4.90820172   +2.59026178
 C   +1.39685357   +5.03232621   +1.20056307
 O   +1.75094767   +3.64917132   +4.37440576
 H   +1.56072835   +6.07814885   +0.97273496
 H   -0.91878227   -0.00329628   -0.56603323
 H   +0.37889956   +4.76589009   +0.92389270
 H   +2.10289191   +4.43059689   +0.63409863
 H   +2.51418358   +2.41616138   +1.67686508
 H   +0.70126170   +2.61167157   +1.53188789
 H   +2.14046145   +1.12501467   +3.78192396
 H   +0.41129152   +1.26541794   +3.73263247
 H   +2.10930669   -0.05329444   +1.55781578
 H   +1.21720792   -0.89534181   +2.80656281
 H   -0.94968550   +0.00595849   +1.84936173
 H   +0.92359948   -0.00914711   -0.56220391
 H   +3.34870275   +2.27450704   +1.17998325
22
 * E =  +8.106 kcal/mol ; (44) 240_181_073_187_002
 C   +0.00000000   +0.00000000   +0.00000000
 C   +0.00000000   +0.00000000   +1.32453808
 C   +1.21987067   +0.00000000   +2.17949859
 C   +1.28436137   -1.22905124   +3.08313885
 C   +2.49321574   -1.21307696   +3.97038874
 C   +2.43626190   -0.23532758   +5.08927168
 O   +3.53004415   -0.05914349   +5.83765475
 C   +4.72844293   -0.74713754   +5.55729229
 O   +1.43877857   +0.37297256   +5.36160104
 H   +5.39939694   -0.51152829   +6.37380754
 H   -0.91896223   +0.00184635   -0.56546737
 H   +5.17293032   -0.40350547   +4.62548582
 H   +4.57743149   -1.82294723   +5.52113965
 H   +2.52820877   -2.35634635   +4.55412340
 H   +3.43915526   -1.22730702   +3.43674972
 H   +1.29961825   -2.12870031   +2.47022731
 H   +0.39219908   -1.26519926   +3.70467838
 H   +1.21752913   +0.88708998   +2.81308430
 H   +2.10844822   +0.04655896   +1.54930130
 H   -0.94694284   -0.00237314   +1.85193518
 H   +0.92273907   +0.00446267   -0.56353807
 H   +2.52891864   -3.25965453   +4.93460909
22
 * E =  +8.265 kcal/mol ; (45) 122_303_090_190_003
 C   +0.00000000   +0.00000000   +0.00000000
 C   +0.00000000   +0.00000000   +1.32527457
 C   +1.22963658   +0.00000000   +2.16807921
 C   +1.30464883   +1.19333099   +3.12066560
 C   +1.21726690   +2.50441125   +2.39422855
 C   -0.15807851   +3.04029912   +2.20668400
 O   -0.32605150   +4.08696405   +1.39242897
 C   +0.75178618   +4.63220393   +0.66622777
 O   -1.10768531   +2.60485416   +2.79664598
 H   +0.35854570   +5.51489583   +0.17752230
 H   -0.91951669   +0.00603130   -0.56451233
 H   +1.10854267   +3.93796427   -0.09156311
 H   +1.57115777   +4.92404829   +1.31868773
 H   +1.77500006   +3.38121614   +3.14469606
 H   +1.84599088   +2.56058375   +1.51084210
 H   +2.24352407   +1.14379487   +3.66999381
 H   +0.49502989   +1.14528917   +3.84473375
 H   +2.10995294   -0.01329401   +1.52440297
 H   +1.26285770   -0.91139699   +2.76690344
 H   -0.94364932   +0.02708336   +1.85591949
 H   +0.92314321   -0.01618368   -0.56371585
 H   +2.26158640   +3.99873457   +3.73244736
22
 * E =  +8.352 kcal/mol ; (46) 117_175_072_187_002
 C   +0.00000000   +0.00000000   +0.00000000
 C   +0.00000000   +0.00000000   +1.32431799
 C   +1.22368595   +0.00000000   +2.17513511
 C   +1.32205749   +1.25777544   +3.03534510
 C   +2.49164417   +1.21040248   +3.97271708
 C   +3.82155281   +1.37350341   +3.32769939
 O   +4.91674054   +1.20392373   +4.07626217
 C   +4.82652457   +0.83677527   +5.43450124
 O   +3.94475757   +1.68085739   +2.17493290
 H   +5.83763636   +0.88490456   +5.81890412
 H   -0.91939057   +0.00663942   -0.56495754
 H   +4.45536576   -0.18005275   +5.54539264
 H   +4.19969778   +1.52332644   +5.99767797
 H   +2.38445033   +2.23664725   +4.73766087
 H   +2.44537068   +0.40620114   +4.70156563
 H   +0.40811700   +1.37672642   +3.61685266
 H   +1.41642894   +2.12451796   +2.38592312
 H   +2.11166031   -0.07442725   +1.55119722
 H   +1.20669664   -0.87549380   +2.82878141
 H   -0.94837436   +0.01259482   +1.85020315
 H   +0.92346516   -0.00581143   -0.56151962
 H   +2.22581335   +3.00871275   +5.31985569
22
 * E =  +8.535 kcal/mol ; (47) 011_069_073_187_002
 C   +0.00000000   +0.00000000   +0.00000000
 C   +0.00000000   +0.00000000   +1.32578254
 C   +1.19262856   +0.00000000   +2.22581583
 C   +2.53517879   +0.26997383   +1.56260614
 C   +2.66272930   +1.68553838   +1.07787724
 C   +2.85664800   +2.69233406   +2.15423342
 O   +2.84559086   +3.98720253   +1.82222115
 C   +2.60638492   +4.39985755   +0.49508337
 O   +3.05089235   +2.38547772   +3.29803865
 H   +2.76021410   +5.47165023   +0.48961333
 H   -0.92345098   -0.02551051   -0.55715663
 H   +1.58266525   +4.18778583   +0.19398593
 H   +3.30078247   +3.93781572   -0.20192481
 H   +3.75347381   +1.73593327   +0.39769163
 H   +1.93480381   +1.97413804   +0.32735245
 H   +2.68745633   -0.41458377   +0.72924417
 H   +3.32295443   +0.08307684   +2.28726334
 H   +1.23635415   -0.96936398   +2.72649427
 H   +1.04404707   +0.72521740   +3.02592011
 H   -0.95579316   -0.02383641   +1.83524230
 H   +0.91266223   +0.01261875   -0.57879147
 H   +4.56740495   +1.69806367   -0.14202216
22
 * E =  +8.648 kcal/mol ; (48) 121_179_186_186_002
 C   +0.00000000   +0.00000000   +0.00000000
 C   +0.00000000   +0.00000000   +1.32421227
 C   +1.22115229   +0.00000000   +2.17811398
 C   +1.27992995   +1.20657067   +3.10261584
 C   +2.48928717   +1.19354212   +3.98715755
 C   +2.52785880   +2.26641625   +5.01454863
 O   +3.63061674   +2.38992470   +5.76225918
 C   +4.74983887   +1.55768514   +5.55815977
 O   +1.60035402   +2.99877027   +5.21560768
 H   +5.43578709   +1.78527837   +6.36447370
 H   -0.91893607   +0.00332762   -0.56531545
 H   +5.23661830   +1.77516496   +4.60954210
 H   +4.48410102   +0.50469549   +5.60488745
 H   +2.41383136   +0.10432825   +4.66981959
 H   +3.42795084   +1.03981911   +3.46233451
 H   +0.38785887   +1.26203504   +3.72360124
 H   +1.28472779   +2.12450727   +2.51275975
 H   +2.10834347   -0.03200030   +1.54504303
 H   +1.23488898   -0.90802439   +2.78548165
 H   -0.94763988   +0.00797011   +1.85051968
 H   +0.92266887   -0.00527447   -0.56351671
 H   +2.31121480   -0.75083973   +5.13731070
22
 * E =  +8.743 kcal/mol ; (49) 239_183_184_185_002
 C   +0.00000000   +0.00000000   +0.00000000
 C   +0.00000000   +0.00000000   +1.32413275
 C   +1.22180691   +0.00000000   +2.17743474
 C   +1.28540325   -1.21060417   +3.09614524
 C   +2.47886837   -1.18097487   +4.00177225
 C   +2.64935918   -2.38583615   +4.85454909
 O   +3.62995501   -2.38582947   +5.76505174
 C   +4.45563358   -1.25867557   +5.95133705
 O   +1.96195047   -3.36067082   +4.73589386
 H   +5.22175475   -1.56856344   +6.65097745
 H   -0.91899594   -0.00475070   -0.56524476
 H   +3.90001099   -0.42824832   +6.38241866
 H   +4.92797768   -0.94594658   +5.02364819
 H   +3.50860489   -1.18784697   +3.22795831
 H   +2.62362613   -0.23866037   +4.52298709
 H   +1.29561702   -2.13097996   +2.51675716
 H   +0.38457893   -1.26162971   +3.71114807
 H   +1.23389754   +0.90792506   +2.78567053
 H   +2.10911840   +0.03400194   +1.54523156
 H   -0.94799535   -0.00929398   +1.85007902
 H   +0.92278125   +0.00471416   -0.56316190
 H   +4.24720783   -1.16752097   +2.58554778
22
 * E =  +8.747 kcal/mol ; (50) 359_181_185_186_002
 C   +0.00000000   +0.00000000   +0.00000000
 C   +0.00000000   +0.00000000   +1.32484310
 C   +1.20372910   +0.00000000   +2.20769499
 C   +2.53103221   -0.01321300   +1.48027819
 C   +3.69736320   -0.03646687   +2.42034857
 C   +5.02821378   +0.07000817   +1.76781828
 O   +6.12087311   -0.05947557   +2.52910278
 C   +6.02321674   -0.33837036   +3.90737346
 O   +5.15473227   +0.29542472   +0.59722313
 H   +7.03346381   -0.27498774   +4.29187676
 H   -0.92508618   +0.00134212   -0.55493635
 H   +5.64225156   -1.34268062   +4.08158666
 H   +5.40096470   +0.38824467   +4.42353404
 H   +3.60415565   +1.03473434   +3.12913643
 H   +3.63732662   -0.79719517   +3.19365219
 H   +2.62278542   +0.84969023   +0.82391718
 H   +2.59327766   -0.88758336   +0.82957896
 H   +1.14056108   -0.86213029   +2.87660006
 H   +1.15372883   +0.87392815   +2.86175960
 H   -0.95100745   +0.00156484   +1.84317554
 H   +0.91239374   +0.00105002   -0.57774399
 H   +3.46079666   +1.85087400   +3.65156267
22
 * E =  +8.764 kcal/mol ; (51) 237_062_171_186_003
 C   +0.00000000   +0.00000000   +0.00000000
 C   +0.00000000   +0.00000000   +1.32476377
 C   +1.22108056   +0.00000000   +2.17987946
 C   +1.28201927   -1.16728079   +3.15534658
 C   +1.31431444   -2.50639729   +2.47967461
 C   +1.58382839   -3.64937721   +3.38842454
 O   +1.74387782   -4.86463405   +2.85153967
 C   +1.72214029   -5.05577087   +1.45496988
 O   +1.62794994   -3.52756056   +4.58075826
 H   +1.76398854   -6.12734422   +1.30497153
 H   -0.91864922   +0.00414948   -0.56596288
 H   +2.58830539   -4.59923015   +0.98014289
 H   +0.80958479   -4.66970082   +1.00825196
 H   +0.11917382   -2.74480881   +2.05160163
 H   +1.86779197   -2.52695891   +1.54518465
 H   +0.44146842   -1.13564802   +3.84761227
 H   +2.17074372   -1.07712157   +3.77986013
 H   +1.25203001   +0.92441843   +2.75813783
 H   +2.10807608   -0.00086802   +1.54544948
 H   -0.94894149   -0.00389611   +1.84970732
 H   +0.92340380   +0.00486362   -0.56273600
 H   -0.79652970   -2.88720442   +1.75962004
22
 * E =  +8.847 kcal/mol ; (52) 118_175_289_182_004
 C   +0.00000000   +0.00000000   +0.00000000
 C   +0.00000000   +0.00000000   +1.32465149
 C   +1.21876972   +0.00000000   +2.18027773
 C   +1.30149391   +1.24957079   +3.05077261
 C   +2.45734499   +1.24633881   +4.01060111
 C   +2.34705780   +0.28662325   +5.14113488
 O   +3.32200707   +0.27022554   +6.05608550
 C   +4.39202049   +1.18736818   +6.00726233
 O   +1.43008426   -0.47852140   +5.25428895
 H   +5.07243678   +0.88547262   +6.79356574
 H   -0.91870825   -0.00114764   -0.56596600
 H   +4.05137506   +2.20142212   +6.20664380
 H   +4.91277062   +1.15211961   +5.05425245
 H   +3.49038280   +0.85683521   +3.33066660
 H   +2.79020294   +2.23306669   +4.31775451
 H   +0.38062948   +1.34204437   +3.62936579
 H   +1.36875506   +2.12919516   +2.41375145
 H   +2.10794493   -0.06784047   +1.55354143
 H   +1.20547816   -0.87278968   +2.83175371
 H   -0.94800840   +0.00360921   +1.85055495
 H   +0.92315082   -0.00657388   -0.56284084
 H   +4.23820371   +0.60113555   +2.76782964
22
 * E =  +9.054 kcal/mol ; (53) 240_183_292_182_004
 C   +0.00000000   +0.00000000   +0.00000000
 C   +0.00000000   +0.00000000   +1.32446634
 C   +1.22213997   +0.00000000   +2.17664810
 C   +1.27634875   -1.22186272   +3.08713385
 C   +2.44636209   -1.23824764   +4.02920108
 C   +3.78198240   -1.41442916   +3.40019901
 O   +4.85259600   -1.48574516   +4.19896770
 C   +4.72556992   -1.47201057   +5.60312851
 O   +3.93746483   -1.48045722   +2.21280200
 H   +5.73697968   -1.43889578   +5.98835211
 H   -0.91927719   -0.00029138   -0.56524263
 H   +4.24098705   -2.37697838   +5.96418181
 H   +4.18389593   -0.59722445   +5.95251386
 H   +2.47645989   -0.06472341   +4.57993078
 H   +2.30403751   -1.85950098   +4.90830196
 H   +1.31661297   -2.11971366   +2.46881416
 H   +0.35955978   -1.28031468   +3.67273367
 H   +1.22478038   +0.89723933   +2.80023177
 H   +2.11325020   +0.03060473   +1.55566091
 H   -0.94977575   -0.00428944   +1.84860507
 H   +0.92370825   +0.00057876   -0.56111297
 H   +2.42183465   +0.81177515   +4.99223181
22
 * E =  +9.168 kcal/mol ; (54) 357_182_292_183_004
 C   +0.00000000   +0.00000000   +0.00000000
 C   +0.00000000   +0.00000000   +1.32525275
 C   +1.19714278   +0.00000000   +2.21492132
 C   +2.52609570   -0.06254063   +1.48699344
 C   +3.71975402   -0.10690874   +2.39799031
 C   +3.99061735   +1.13093028   +3.17554023
 O   +5.07513421   +1.16169833   +3.95776838
 C   +5.98710619   +0.08690458   +3.99477459
 O   +3.27172461   +2.09044109   +3.14078470
 H   +6.69848736   +0.33327798   +4.77301844
 H   -0.92428592   +0.00754240   -0.55620884
 H   +6.51881039   -0.01182308   +3.05049445
 H   +5.49844291   -0.85094342   +4.24454806
 H   +3.46377609   -1.01865531   +3.28313643
 H   +4.61130762   -0.52728757   +1.94273863
 H   +2.62247299   +0.81187745   +0.84073854
 H   +2.54798318   -0.94034198   +0.84279877
 H   +1.11891807   -0.84951740   +2.89774614
 H   +1.17218864   +0.89124333   +2.84128035
 H   -0.95264506   +0.00952794   +1.84055186
 H   +0.91204545   -0.00229318   -0.57837836
 H   +3.24089711   -1.74144631   +3.89148536
22
 * E =  +9.237 kcal/mol ; (55) 247_300_192_186_002
 C   +0.00000000   +0.00000000   +0.00000000
 C   +0.00000000   +0.00000000   +1.32484034
 C   +1.22664733   +0.00000000   +2.17342620
 C   +1.43133654   -1.28329523   +2.97127916
 C   +0.31545536   -1.59031842   +3.92428070
 C   +0.61060153   -2.67101418   +4.90114468
 O   -0.37564538   -3.08516019   +5.70501447
 C   -1.67561872   -2.54966994   +5.60461975
 O   +1.69972246   -3.15893044   +5.01510196
 H   -2.22968226   -2.96657315   +6.43629962
 H   -0.91815633   -0.00274851   -0.56682459
 H   -2.15610885   -2.84950186   +4.67543899
 H   -1.67349137   -1.46580380   +5.68750529
 H   +0.17032409   -0.53722197   +4.65268585
 H   -0.66701780   -1.66281720   +3.46882155
 H   +2.36140580   -1.23166627   +3.53183165
 H   +1.53882990   -2.12480164   +2.28466465
 H   +1.18477391   +0.84112688   +2.86856393
 H   +2.09849242   +0.15853252   +1.54153364
 H   -0.95303328   +0.00419493   +1.84142895
 H   +0.92353521   +0.00696630   -0.56205357
 H   +0.08644573   +0.30043459   +5.15540288
22
 * E =  +9.578 kcal/mol ; (56) 350_294_130_185_005
 C   +0.00000000   +0.00000000   +0.00000000
 C   +0.00000000   +0.00000000   +1.32608895
 C   +1.20625219   +0.00000000   +2.20839918
 C   +2.52556849   -0.23415942   +1.49608188
 C   +2.62129995   -1.61487162   +0.89532035
 C   +3.03538725   -1.68615835   -0.53236334
 O   +3.04034172   -2.88356839   -1.12625441
 C   +2.57520868   -4.03759768   -0.46239123
 O   +3.38999460   -0.72653026   -1.15899418
 H   +2.77510288   -4.86192665   -1.13541506
 H   -0.92673638   +0.01745547   -0.55248412
 H   +1.50423138   -3.98202225   -0.27961778
 H   +3.10326519   -4.20677944   +0.47237111
 H   +3.55715985   -2.22546771   +1.50582996
 H   +1.77747612   -2.25796066   +1.12750800
 H   +3.33981816   -0.08657580   +2.20434374
 H   +2.67850355   +0.49975641   +0.70752507
 H   +1.07139396   -0.75446354   +2.98727272
 H   +1.24644502   +0.95261417   +2.73988376
 H   -0.95175718   +0.01632659   +1.84339055
 H   +0.91113543   +0.00145786   -0.58136234
 H   +4.27251125   -2.64488768   +2.04556715
22
 * E =  +9.609 kcal/mol ; (57) 124_296_298_184_004
 C   +0.00000000   +0.00000000   +0.00000000
 C   +0.00000000   +0.00000000   +1.32519710
 C   +1.22605905   +0.00000000   +2.17204340
 C   +1.29446608   +1.15660968   +3.16730981
 C   +1.38526086   +2.53854279   +2.58373610
 C   +2.58047257   +2.83257288   +1.75552144
 O   +2.73300650   +4.07607953   +1.28398321
 C   +1.84270157   +5.11213385   +1.63206173
 O   +3.40763838   +2.00681977   +1.48180304
 H   +2.14821374   +5.96984963   +1.04587198
 H   -0.91888060   -0.01400335   -0.56597516
 H   +1.92219204   +5.36190590   +2.68836956
 H   +0.81420922   +4.86251614   +1.38693665
 H   +0.35092698   +2.70427378   +1.79112219
 H   +1.16561186   +3.32290925   +3.30194649
 H   +2.16832449   +1.00622685   +3.80333508
 H   +0.42414725   +1.12382239   +3.82267077
 H   +2.11344913   +0.00378394   +1.54705078
 H   +1.24769213   -0.92222230   +2.75525643
 H   -0.95001114   -0.00637212   +1.84949987
 H   +0.92450833   +0.01113918   -0.55988005
 H   -0.44663393   +2.83452398   +1.29033736
22
 * E =  +9.614 kcal/mol ; (58) 114_062_171_186_003
 C   +0.00000000   +0.00000000   +0.00000000
 C   +0.00000000   +0.00000000   +1.32469183
 C   +1.22737835   +0.00000000   +2.17217979
 C   +1.41455535   +1.26453833   +3.00095085
 C   +0.32225122   +1.50853933   +4.00067700
 C   +0.59762424   +2.61740436   +4.95184241
 O   -0.27069388   +2.83133125   +5.94719193
 C   -1.38586372   +1.99117923   +6.14007048
 O   +1.54640100   +3.34117325   +4.83860852
 H   -1.96517499   +2.44970991   +6.93166935
 H   -0.91861534   +0.00393564   -0.56595682
 H   -1.08096255   +0.99604875   +6.45784932
 H   -1.99962660   +1.92253447   +5.24560989
 H   -0.70950542   +1.93559283   +3.35215959
 H   -0.07807755   +0.61060750   +4.46433260
 H   +1.50694061   +2.13358812   +2.35218527
 H   +2.35767460   +1.20376851   +3.54474872
 H   +2.10072283   -0.13194068   +1.53599403
 H   +1.19988387   -0.85953448   +2.84620073
 H   -0.95177342   +0.00140577   +1.84284693
 H   +0.92326009   -0.00434058   -0.56253448
 H   -1.46137637   +2.26649113   +2.82906329
22
 * E = +10.312 kcal/mol ; (59) 251_304_303_184_005
 C   +0.00000000   +0.00000000   +0.00000000
 C   +0.00000000   +0.00000000   +1.32538325
 C   +1.22424450   +0.00000000   +2.17541529
 C   +1.48721089   -1.32076009   +2.89941122
 C   +0.39647559   -1.85946780   +3.78338538
 C   -0.08497875   -0.98603360   +4.88293495
 O   -0.99135117   -1.48313088   +5.73304498
 C   -1.41264347   -2.82697567   +5.66449388
 O   +0.28750949   +0.14472583   +5.03365727
 H   -2.20015424   -2.92434015   +6.40129227
 H   -0.91832332   +0.00958959   -0.56665643
 H   -0.60348459   -3.50733005   +5.92257445
 H   -1.80995733   -3.07862977   +4.68508266
 H   -0.64092119   -2.09117873   +3.03208398
 H   +0.58819235   -2.87768571   +4.10931345
 H   +2.38166557   -1.19907029   +3.51336532
 H   +1.71730860   -2.08827253   +2.16146101
 H   +1.15286410   +0.79414422   +2.91376756
 H   +2.09182167   +0.20782653   +1.55087083
 H   -0.95093402   +0.01716816   +1.84401679
 H   +0.92363268   -0.00133550   -0.56243543
 H   -1.36014337   -2.33681709   +2.44050586
22
 * E = +10.428 kcal/mol ; (60) 356_279_284_186_005
 C   +0.00000000   +0.00000000   +0.00000000
 C   +0.00000000   +0.00000000   +1.32521245
 C   +1.18755689   +0.00000000   +2.23079483
 C   +2.54887567   -0.08351211   +1.55767129
 C   +2.96886551   -1.47034779   +1.14986991
 C   +3.42216734   -2.33101637   +2.27313498
 O   +3.92786272   -3.53606863   +1.98750257
 C   +4.12960687   -3.95159808   +0.65542811
 O   +3.31989524   -2.00128888   +3.42255863
 H   +4.45477965   -4.98264867   +0.71649317
 H   -0.92357640   +0.01447583   -0.55719902
 H   +4.90859319   -3.36452865   +0.17296014
 H   +3.21348420   -3.90207346   +0.07303783
 H   +1.92781013   -2.11969334   +0.69799692
 H   +3.61131105   -1.51361831   +0.27665497
 H   +3.29634587   +0.28046098   +2.26187594
 H   +2.57923737   +0.57726246   +0.69421368
 H   +1.09550878   -0.81162618   +2.95333039
 H   +1.14626007   +0.91151551   +2.82912398
 H   -0.95576969   +0.01172054   +1.83526440
 H   +0.91202532   -0.02123743   -0.57921829
 H   +1.17333377   -2.60849689   +0.36380853
