22
 * E =  +0.000 kcal/mol ; (1) 120_296_291_172_179
 C   +0.00000000   +0.00000000   +0.00000000
 C   +0.00000000   +0.00000000   +1.31312958
 C   +1.22507960   +0.00000000   +2.17553922
 C   +1.29393518   +1.21543706   +3.09252731
 C   +1.40268344   +2.52836108   +2.34662216
 C   +2.72279686   +2.70153438   +1.66092654
 O   +2.73396829   +3.78106225   +0.88328370
 C   +3.95724201   +4.03902124   +0.21731847
 O   +3.67727382   +1.98189812   +1.78988453
 H   +3.79617906   +4.94054930   -0.35923422
 H   -1.31837978   -0.00646330   -0.63168832
 H   +4.21603007   +3.21027635   -0.43424578
 H   +4.75765082   +4.18273657   +0.93640225
 H   +0.61759045   +2.63314650   +1.59931205
 H   +1.28684532   +3.37417930   +3.02400502
 H   +2.15238975   +1.10793626   +3.75208692
 H   +0.40551717   +1.24526360   +3.72286193
 H   +2.12142919   -0.04593735   +1.56158138
 H   +1.21545721   -0.89998892   +2.79146497
 H   -0.95342877   +0.00765715   +1.83394333
 H   +0.81358393   -0.01160077   -0.70965752
 H   -2.10864639   -0.01404244   -0.94709509
22
 * E =  +0.205 kcal/mol ; (2) 118_178_291_168_178
 C   +0.00000000   +0.00000000   +0.00000000
 C   +0.00000000   +0.00000000   +1.31264899
 C   +1.22412031   +0.00000000   +2.17431676
 C   +1.31347800   +1.25170624   +3.03489942
 C   +2.51672396   +1.24503372   +3.95353724
 C   +2.40783271   +0.22737080   +5.04787418
 O   +3.56405386   +0.06348560   +5.68484955
 C   +3.53937249   -0.85508559   +6.76370124
 O   +1.40719670   -0.36688110   +5.34790993
 H   +4.54469298   -0.86878637   +7.16388144
 H   -1.32047369   +0.01010250   -0.63197967
 H   +3.25347735   -1.84196645   +6.41378065
 H   +2.83097971   -0.53198174   +7.52003369
 H   +3.44300444   +1.06646699   +3.40947388
 H   +2.63990293   +2.21266939   +4.44043101
 H   +0.40993846   +1.34248849   +3.63563353
 H   +1.36125090   +2.12838537   +2.39149847
 H   +2.11390712   -0.08683892   +1.55119936
 H   +1.19274342   -0.87311113   +2.82698499
 H   -0.95028948   +0.01295942   +1.83715655
 H   +0.81091847   -0.01354193   -0.71251748
 H   -2.10926115   +0.01578504   -0.94786892
22
 * E =  +0.379 kcal/mol ; (3) 117_300_080_210_180
 C   +0.00000000   +0.00000000   +0.00000000
 C   +0.00000000   +0.00000000   +1.31328051
 C   +1.23462778   +0.00000000   +2.16262446
 C   +1.36313804   +1.25086631   +3.02456296
 C   +1.41718301   +2.52949211   +2.20954141
 C   +0.06128074   +2.97876757   +1.75400893
 O   +0.11296323   +3.63911000   +0.60278488
 C   -1.13489666   +4.09588114   +0.11115824
 O   -0.95983718   +2.80411908   +2.36437542
 H   -0.91670454   +4.61839058   -0.81111294
 H   -1.31722536   +0.03900043   -0.63523507
 H   -1.60554032   +4.76182249   +0.82747475
 H   -1.79324073   +3.25257167   -0.07377687
 H   +1.81622565   +3.34464695   +2.81388342
 H   +2.06861189   +2.43333362   +1.34380710
 H   +2.26829565   +1.16758117   +3.62282229
 H   +0.52464502   +1.31610427   +3.71591962
 H   +2.11386766   -0.09800400   +1.52632764
 H   +1.21430589   -0.87480326   +2.81357915
 H   -0.94651948   +0.03688239   +1.84204469
 H   +0.81247428   -0.01651776   -0.71099197
 H   -2.10400932   +0.06848494   -0.95805560
22
 * E =  +0.398 kcal/mol ; (4) 121_295_178_174_179
 C   +0.00000000   +0.00000000   +0.00000000
 C   +0.00000000   +0.00000000   +1.31289090
 C   +1.22218829   +0.00000000   +2.18022376
 C   +1.28087225   +1.20489954   +3.10871494
 C   +1.41998254   +2.50897097   +2.35639357
 C   +1.43391827   +3.69789305   +3.26359618
 O   +1.67580510   +4.82345541   +2.59476072
 C   +1.68924912   +6.00407977   +3.37727061
 O   +1.24751479   +3.67167796   +4.45030028
 H   +1.89780393   +6.81309031   +2.68934877
 H   -1.31879156   -0.00044325   -0.63128118
 H   +2.45823689   +5.94391647   +4.14108615
 H   +0.72751793   +6.15063869   +3.85893749
 H   +2.33086741   +2.53022216   +1.75840090
 H   +0.60299242   +2.64358169   +1.64713810
 H   +2.11655974   +1.09299169   +3.79665388
 H   +0.38660539   +1.24226479   +3.72896781
 H   +2.11578284   -0.04042365   +1.55804793
 H   +1.21710777   -0.90793155   +2.78428718
 H   -0.95225654   +0.00728741   +1.83533569
 H   +0.81247319   -0.00790025   -0.71092609
 H   -2.10840944   -0.00149105   -0.94730940
22
 * E =  +0.405 kcal/mol ; (5) 118_175_068_191_182
 C   +0.00000000   +0.00000000   +0.00000000
 C   +0.00000000   +0.00000000   +1.31244503
 C   +1.22664830   +0.00000000   +2.17131134
 C   +1.31108140   +1.24286696   +3.04479198
 C   +2.47946825   +1.20900848   +4.00688933
 C   +3.80858824   +1.30658198   +3.32188510
 O   +4.81037355   +1.03974176   +4.15600782
 C   +6.10955503   +1.14796806   +3.60076849
 O   +3.98000851   +1.60636083   +2.17097521
 H   +6.79507782   +0.90280831   +4.40139227
 H   -1.32169636   +0.00937041   -0.62716685
 H   +6.28543102   +2.15735078   +3.24231366
 H   +6.22598927   +0.45616579   +2.77250151
 H   +2.43033438   +2.04255396   +4.70787355
 H   +2.47544310   +0.30729382   +4.61769865
 H   +0.39094285   +1.34803335   +3.61884898
 H   +1.39303933   +2.12090107   +2.40744496
 H   +2.11584026   -0.07013879   +1.54954694
 H   +1.20366599   -0.88556080   +2.81118362
 H   -0.95197593   +0.01260857   +1.83489435
 H   +0.81165860   -0.00558363   -0.71143387
 H   -2.11317856   +0.01479253   -0.93794197
22
 * E =  +0.407 kcal/mol ; (6) 000_178_069_190_182
 C   +0.00000000   +0.00000000   +0.00000000
 C   +0.00000000   +0.00000000   +1.31283543
 C   +1.20724600   +0.00000000   +2.20092501
 C   +2.53353137   +0.01198683   +1.47100553
 C   +3.71980269   +0.06745413   +2.40967689
 C   +3.90813535   -1.19302702   +3.19768260
 O   +4.81281029   -1.03792368   +4.16106661
 C   +5.08353648   -2.19475094   +4.93332251
 O   +3.34257563   -2.23361663   +2.99494440
 H   +5.83083994   -1.89880939   +5.65789423
 H   -1.32694877   -0.00328388   -0.61822327
 H   +5.45901440   -2.99308346   +4.30091521
 H   +4.18201710   -2.53667573   +5.43185881
 H   +4.64578334   +0.22826924   +1.85738546
 H   +3.64523866   +0.89911516   +3.10902174
 H   +2.57498747   +0.87399903   +0.80626793
 H   +2.61158797   -0.87878005   +0.84984675
 H   +1.15510881   -0.87780606   +2.84584225
 H   +1.14029484   +0.86757766   +2.86218587
 H   -0.95619070   -0.00203136   +1.82579976
 H   +0.79676827   -0.00526008   -0.72671675
 H   -2.11886799   -0.00549905   -0.92395285
22
 * E =  +0.687 kcal/mol ; (7) 121_178_181_184_181
 C   +0.00000000   +0.00000000   +0.00000000
 C   +0.00000000   +0.00000000   +1.31239128
 C   +1.22493998   +0.00000000   +2.17381232
 C   +1.27499791   +1.20181635   +3.10298382
 C   +2.48448060   +1.16340135   +4.00954759
 C   +2.53599392   +2.32288044   +4.95471579
 O   +3.64693918   +2.30770272   +5.68835772
 C   +3.77310230   +3.36670308   +6.62109804
 O   +1.69329746   +3.17163229   +5.06239453
 H   +4.71773730   +3.20714059   +7.12446443
 H   -1.32168378   +0.01051047   -0.62879449
 H   +2.95292119   +3.34535399   +7.33186671
 H   +3.76925591   +4.32420341   +6.10979477
 H   +2.50112076   +0.25240642   +4.60896710
 H   +3.41312938   +1.15582463   +3.43931802
 H   +0.37238922   +1.24340070   +3.71063197
 H   +1.28432199   +2.12016013   +2.51917490
 H   +2.11561648   -0.02926146   +1.54711691
 H   +1.23083467   -0.91527422   +2.77037432
 H   -0.95110820   +0.00988259   +1.83579208
 H   +0.81053873   -0.00554470   -0.71289680
 H   -2.11156534   +0.01824753   -0.94149360
22
 * E =  +0.802 kcal/mol ; (8) 350_290_289_174_179
 C   +0.00000000   +0.00000000   +0.00000000
 C   +0.00000000   +0.00000000   +1.31333870
 C   +1.19915145   +0.00000000   +2.21676002
 C   +2.53728437   -0.22618716   +1.53906713
 C   +2.72404355   -1.63907129   +1.02290960
 C   +2.91177737   -2.63616885   +2.12531342
 O   +2.93650593   -3.88215393   +1.65981325
 C   +3.13439020   -4.89201176   +2.63347805
 O   +3.04096621   -2.37335260   +3.29125314
 H   +3.12989251   -5.82941672   +2.09280088
 H   -1.32362518   +0.04262229   -0.61872408
 H   +2.33576240   -4.87116380   +3.36830839
 H   +4.08277502   -4.74819998   +3.14163301
 H   +1.88310144   -1.96712852   +0.41479983
 H   +3.60258437   -1.71092103   +0.38196257
 H   +3.32880140   -0.01235118   +2.25357882
 H   +2.65586857   +0.47522335   +0.71425928
 H   +1.05577989   -0.74897178   +2.99572780
 H   +1.21440789   +0.95803253   +2.73914410
 H   -0.95965029   +0.02303688   +1.81991110
 H   +0.79681492   -0.01702150   -0.72735101
 H   -2.11535376   +0.07210850   -0.92607959
22
 * E =  +0.974 kcal/mol ; (9) 246_298_294_167_178
 C   +0.00000000   +0.00000000   +0.00000000
 C   +0.00000000   +0.00000000   +1.31302755
 C   +1.23036903   +0.00000000   +2.16912225
 C   +1.40015311   -1.27293497   +2.99133500
 C   +0.28583569   -1.53020717   +3.98501794
 C   +0.23539280   -0.51398770   +5.08462704
 O   -0.90230513   -0.58680819   +5.77044565
 C   -1.01420091   +0.31006451   +6.86191666
 O   +1.10928001   +0.26695775   +5.35123995
 H   -1.98178821   +0.11636774   +7.30604595
 H   -1.31890088   -0.00371832   -0.63095288
 H   -0.95118044   +1.33696668   +6.51602314
 H   -0.22069389   +0.13245372   +7.58098608
 H   -0.69241165   -1.57928831   +3.51173782
 H   +0.42401695   -2.49828551   +4.46739827
 H   +2.34106009   -1.20786618   +3.53412766
 H   +1.46993187   -2.12668717   +2.31945036
 H   +1.19862471   +0.85372413   +2.84626535
 H   +2.10702578   +0.13126445   +1.53834511
 H   -0.95685332   +0.00207843   +1.82532540
 H   +0.81245556   +0.00916213   -0.71101325
 H   -2.10953412   -0.00567379   -0.94524792
22
 * E =  +1.123 kcal/mol ; (10) 105_295_297_271_178
 C   +0.00000000   +0.00000000   +0.00000000
 C   +0.00000000   +0.00000000   +1.31308421
 C   +1.23978653   +0.00000000   +2.15708114
 C   +1.50872555   +1.35990797   +2.79235343
 C   +1.81575027   +2.45717087   +1.77542010
 C   +3.06478700   +2.15208581   +1.01319462
 O   +4.15133050   +2.62862305   +1.61814396
 C   +5.38173110   +2.33640011   +0.97971738
 O   +3.11697428   +1.51769095   -0.00805321
 H   +5.39278770   +2.74615676   -0.02531644
 H   -1.32019844   +0.01579270   -0.62624565
 H   +5.53377035   +1.26307179   +0.92201605
 H   +6.14848453   +2.79774808   +1.58831407
 H   +1.00459372   +2.53119816   +1.05690977
 H   +1.93180806   +3.40893156   +2.28553656
 H   +2.33788761   +1.27514784   +3.49373722
 H   +0.64027948   +1.67124580   +3.37207488
 H   +2.09143315   -0.30109862   +1.55077098
 H   +1.13127634   -0.74094740   +2.94902268
 H   -0.94739555   +0.03085506   +1.84253162
 H   +0.81959370   -0.00581447   -0.70288359
 H   -2.11364179   +0.02199729   -0.93592672
22
 * E =  +1.130 kcal/mol ; (11) 010_071_185_190_181
 C   +0.00000000   +0.00000000   +0.00000000
 C   +0.00000000   +0.00000000   +1.31304393
 C   +1.20475986   +0.00000000   +2.21036986
 C   +2.53537865   +0.24861816   +1.52732319
 C   +2.69295154   +1.67862275   +1.05542347
 C   +3.95239956   +1.89391472   +0.27788321
 O   +4.17644189   +3.18689464   +0.05308422
 C   +5.33739622   +3.48010436   -0.70384998
 O   +4.68390506   +1.02679952   -0.11819322
 H   +5.37054449   +4.55841760   -0.78952252
 H   -1.32396263   -0.04644513   -0.61706838
 H   +5.27617127   +3.02079970   -1.68554664
 H   +6.22327432   +3.10926193   -0.19792655
 H   +1.86229918   +1.97926985   +0.41673590
 H   +2.68637932   +2.37702923   +1.89117669
 H   +2.66275383   -0.42898374   +0.68536091
 H   +3.34284197   +0.01413528   +2.21808015
 H   +1.23159274   -0.96453296   +2.72008711
 H   +1.04543900   +0.73914870   +2.99822858
 H   -0.95798317   -0.02550608   +1.82232092
 H   +0.79734811   +0.01456912   -0.72693788
 H   -2.11619856   -0.07820711   -0.92256027
22
 * E =  +1.213 kcal/mol ; (12) 120_179_298_320_182
 C   +0.00000000   +0.00000000   +0.00000000
 C   +0.00000000   +0.00000000   +1.31251247
 C   +1.22483659   +0.00000000   +2.17340423
 C   +1.28580590   +1.21826208   +3.08194280
 C   +2.50898355   +1.21357475   +3.98155403
 C   +2.57936473   +0.05366798   +4.92854438
 O   +1.38953515   -0.24157557   +5.45104666
 C   +1.38528034   -1.30397118   +6.38858169
 O   +3.58168488   -0.54021924   +5.22013725
 H   +2.02711586   -1.06705623   +7.23124626
 H   -1.32124689   +0.00802004   -0.62939972
 H   +1.73990677   -2.21921795   +5.92504297
 H   +0.35756270   -1.41218159   +6.70997565
 H   +3.43082236   +1.20401321   +3.40687115
 H   +2.52225990   +2.11658644   +4.59238911
 H   +0.38754988   +1.26159109   +3.69512990
 H   +1.30025556   +2.12102191   +2.47371675
 H   +2.11683766   -0.04713532   +1.55019702
 H   +1.21775989   -0.90273125   +2.78827815
 H   -0.95099855   +0.01020171   +1.83617792
 H   +0.81066320   -0.00956188   -0.71271410
 H   -2.11121984   +0.01290445   -0.94220925
22
 * E =  +1.291 kcal/mol ; (13) 001_179_062_041_178
 C   +0.00000000   +0.00000000   +0.00000000
 C   +0.00000000   +0.00000000   +1.31288910
 C   +1.20978494   +0.00000000   +2.19788221
 C   +2.53505049   +0.02306550   +1.46682917
 C   +3.72053873   +0.05051755   +2.41513161
 C   +3.82385045   -1.14441217   +3.31463240
 O   +3.53733134   -2.27857201   +2.67727974
 C   +3.65085424   -3.45784537   +3.45424590
 O   +4.14893610   -1.11307387   +4.47049649
 H   +2.98088397   -3.41509148   +4.30724642
 H   -1.32690102   -0.00100872   -0.61778933
 H   +4.66803848   -3.57712204   +3.81391794
 H   +3.38015014   -4.27357201   +2.79664549
 H   +4.64917050   +0.09335329   +1.84560157
 H   +3.70078168   +0.92528198   +3.05901306
 H   +2.58212887   +0.90312745   +0.82656116
 H   +2.61054536   -0.84836004   +0.81939406
 H   +1.15801977   -0.88247796   +2.83993849
 H   +1.14163222   +0.85749492   +2.87092032
 H   -0.95540010   -0.00122657   +1.82715864
 H   +0.79722962   -0.00049016   -0.72625641
 H   -2.11887740   -0.00155995   -0.92312838
22
 * E =  +1.293 kcal/mol ; (14) 246_299_186_184_181
 C   +0.00000000   +0.00000000   +0.00000000
 C   +0.00000000   +0.00000000   +1.31287020
 C   +1.23213356   +0.00000000   +2.16727132
 C   +1.40962968   -1.27439766   +2.98211255
 C   +0.28297887   -1.52183399   +3.96102907
 C   +0.54778356   -2.69458431   +4.85319692
 O   -0.49010284   -2.94997441   +5.64677259
 C   -0.32150288   -4.04054988   +6.53527653
 O   +1.56129998   -3.33856091   +4.87577420
 H   -1.24352344   -4.10972803   +7.09762276
 H   -1.31928257   -0.01049694   -0.62956575
 H   +0.51869368   -3.86223948   +7.19909160
 H   -0.14228513   -4.95631102   +5.98076073
 H   +0.12008970   -0.65512781   +4.60367795
 H   -0.66598261   -1.70023491   +3.45788205
 H   +2.34682069   -1.22072373   +3.53221626
 H   +1.49952729   -2.12748691   +2.31215100
 H   +1.18715911   +0.85543546   +2.84497699
 H   +2.10720456   +0.14512413   +1.53746879
 H   -0.95473836   -0.00271554   +1.82874952
 H   +0.81231664   +0.00919920   -0.71107568
 H   -2.11010946   -0.01691498   -0.94298122
22
 * E =  +1.325 kcal/mol ; (15) 121_295_180_310_181
 C   +0.00000000   +0.00000000   +0.00000000
 C   +0.00000000   +0.00000000   +1.31285928
 C   +1.22327778   +0.00000000   +2.17810608
 C   +1.28198267   +1.20689793   +3.10484455
 C   +1.41927681   +2.51283952   +2.34058634
 C   +1.46865006   +3.72183498   +3.21975736
 O   +0.47282938   +3.73511361   +4.10574475
 C   +0.43623004   +4.86373305   +4.96077624
 O   +2.28646069   +4.59912121   +3.15085346
 H   -0.41791780   +4.71736719   +5.60913322
 H   -1.31914530   -0.00150338   -0.63032445
 H   +0.32433981   +5.77451918   +4.38086291
 H   +1.35088270   +4.92875916   +5.54164701
 H   +2.32128123   +2.52282819   +1.73556151
 H   +0.57158944   +2.63029479   +1.66474177
 H   +2.12596349   +1.09108954   +3.78384567
 H   +0.38616573   +1.24377807   +3.72225545
 H   +2.11659801   -0.03880404   +1.55598023
 H   +1.21989600   -0.90683580   +2.78403329
 H   -0.95195322   +0.00714366   +1.83575660
 H   +0.81241803   -0.00697668   -0.71091450
 H   -2.10914220   -0.00367256   -0.94520111
22
 * E =  +1.378 kcal/mol ; (16) 240_184_299_319_182
 C   +0.00000000   +0.00000000   +0.00000000
 C   +0.00000000   +0.00000000   +1.31242517
 C   +1.22436129   +0.00000000   +2.17430192
 C   +1.29156833   -1.22403497   +3.07471867
 C   +2.47687470   -1.18624289   +4.02307364
 C   +3.81399280   -1.15701689   +3.34586469
 O   +3.85971463   -1.96673512   +2.28895019
 C   +5.10766925   -2.02320134   +1.62072196
 O   +4.75774947   -0.50872592   +3.70862844
 H   +4.97158650   -2.71010543   +0.79557922
 H   -1.32153890   -0.00548348   -0.62815005
 H   +5.88089805   -2.38130788   +2.29312997
 H   +5.38788495   -1.03915891   +1.25811015
 H   +2.43991352   -0.32052702   +4.67838127
 H   +2.46929851   -2.07116184   +4.65993545
 H   +1.34173864   -2.12074372   +2.46126197
 H   +0.37845701   -1.29265653   +3.66526749
 H   +1.21971904   +0.90033723   +2.79247885
 H   +2.11472054   +0.04888608   +1.54874224
 H   -0.95189344   -0.00914976   +1.83477501
 H   +0.81087660   +0.00749753   -0.71238166
 H   -2.11212569   -0.00832737   -0.93988435
22
 * E =  +1.517 kcal/mol ; (17) 120_178_180_052_179
 C   +0.00000000   +0.00000000   +0.00000000
 C   +0.00000000   +0.00000000   +1.31245363
 C   +1.22533524   +0.00000000   +2.17320678
 C   +1.28679106   +1.21610325   +3.08348257
 C   +2.50405652   +1.17687661   +3.99276681
 C   +2.60696923   +2.36001371   +4.90401693
 O   +1.48017821   +2.56038344   +5.58598359
 C   +1.50020046   +3.65588581   +6.48411409
 O   +3.57741634   +3.05568686   +5.03342412
 H   +0.52256221   +3.67736239   +6.94775104
 H   -1.32184381   +0.01148152   -0.62778622
 H   +1.69000757   +4.58066864   +5.94851137
 H   +2.27531812   +3.51827709   +7.23149802
 H   +2.46343493   +0.28413427   +4.61815403
 H   +3.42586044   +1.13693915   +3.42027040
 H   +0.38595986   +1.27158641   +3.69191766
 H   +1.31003374   +2.11938858   +2.47470698
 H   +2.11611642   -0.04602195   +1.54829411
 H   +1.22286109   -0.90386749   +2.78658984
 H   -0.95116857   +0.01023192   +1.83579384
 H   +0.81044512   -0.00761032   -0.71294808
 H   -2.11229703   +0.01981327   -0.93917017
22
 * E =  +1.534 kcal/mol ; (18) 000_180_180_313_181
 C   +0.00000000   +0.00000000   +0.00000000
 C   +0.00000000   +0.00000000   +1.31278041
 C   +1.21071097   +0.00000000   +2.19699305
 C   +2.53467896   +0.00782281   +1.46415311
 C   +3.70863082   +0.00993489   +2.42767213
 C   +5.04758265   +0.02631909   +1.75772989
 O   +5.12444927   -0.86615993   +0.77187530
 C   +6.37378992   -0.92980853   +0.10669678
 O   +5.96662707   +0.73616562   +2.06441035
 H   +6.26606090   -1.69150653   -0.65450004
 H   -1.32726952   -0.00123446   -0.61747713
 H   +7.16111942   -1.19536505   +0.80519000
 H   +6.61260900   +0.02910488   -0.34224489
 H   +3.67946956   +0.86884597   +3.09166699
 H   +3.67298311   -0.88484651   +3.05112571
 H   +2.58824412   +0.88728219   +0.82209341
 H   +2.60477234   -0.86071233   +0.81262198
 H   +1.15505856   -0.87379536   +2.85038002
 H   +1.14729055   +0.86477594   +2.86108827
 H   -0.95506355   +0.00014791   +1.82766538
 H   +0.79767653   -0.00053556   -0.72582312
 H   -2.11930268   -0.00263451   -0.92219515
22
 * E =  +1.561 kcal/mol ; (19) 120_177_180_305_180
 C   +0.00000000   +0.00000000   +0.00000000
 C   +0.00000000   +0.00000000   +1.31242088
 C   +1.22492116   +0.00000000   +2.17376982
 C   +1.28862402   +1.21864219   +3.08057949
 C   +2.49655841   +1.17106465   +4.00288603
 C   +2.59303096   +2.35749836   +4.91031635
 O   +2.58950561   +3.50264563   +4.22978592
 C   +2.68485170   +4.67716703   +5.01611240
 O   +2.67038842   +2.31305029   +6.10813781
 H   +2.66783582   +5.50380957   +4.31787369
 H   -1.32180732   +0.00984422   -0.62791688
 H   +3.60849869   +4.67677638   +5.58637883
 H   +1.84803319   +4.74064618   +5.70450197
 H   +2.47643890   +0.28812207   +4.63454541
 H   +3.40874437   +1.13547901   +3.40650001
 H   +0.37799056   +1.27434483   +3.67790108
 H   +1.32494610   +2.12367885   +2.47849174
 H   +2.11631832   -0.04565468   +1.54933985
 H   +1.22196846   -0.90374207   +2.78684184
 H   -0.95142015   +0.00883750   +1.83539338
 H   +0.81043519   -0.00716396   -0.71295853
 H   -2.11215039   +0.01714112   -0.93955750
22
 * E =  +1.589 kcal/mol ; (20) 238_064_179_305_180
 C   +0.00000000   +0.00000000   +0.00000000
 C   +0.00000000   +0.00000000   +1.31267624
 C   +1.22349996   +0.00000000   +2.17775020
 C   +1.27901403   -1.19127353   +3.12406720
 C   +1.37684833   -2.51551685   +2.38344909
 C   +1.46086403   -3.69512589   +3.30011077
 O   +2.47300645   -3.58237547   +4.16103743
 C   +2.62863430   -4.66596376   +5.05976470
 O   +0.72638857   -4.64523354   +3.28494028
 H   +3.48161784   -4.41877917   +5.67838053
 H   -1.31928076   +0.00353916   -0.63122225
 H   +2.80596559   -5.58764016   +4.51436113
 H   +1.73709037   -4.78516811   +5.66741688
 H   +0.52193259   -2.66972574   +1.73333823
 H   +2.27257041   -2.51509949   +1.76103706
 H   +0.38993352   -1.19339834   +3.75585086
 H   +2.13485942   -1.08618973   +3.78679219
 H   +1.22983894   +0.91621910   +2.76956933
 H   +2.11670916   +0.02067990   +1.55424768
 H   -0.95212371   -0.00522492   +1.83530733
 H   +0.81236183   +0.00442223   -0.71098951
 H   -2.10858072   +0.00696581   -0.94683643
22
 * E =  +1.667 kcal/mol ; (21) 251_304_304_280_178
 C   +0.00000000   +0.00000000   +0.00000000
 C   +0.00000000   +0.00000000   +1.31298529
 C   +1.23745520   +0.00000000   +2.16029808
 C   +1.47250715   -1.32053479   +2.88574275
 C   +0.30328808   -1.77538033   +3.75605766
 C   -0.07347625   -0.72335851   +4.74913380
 O   +0.73093948   -0.72558241   +5.80982763
 C   +0.46885701   +0.27839882   +6.77489565
 O   -0.96536115   +0.07134139   +4.60967113
 H   +1.20123191   +0.13488158   +7.55852514
 H   -1.31678763   -0.00561276   -0.63622416
 H   -0.53741576   +0.17149887   +7.16738309
 H   +0.56947064   +1.26471506   +6.33283218
 H   -0.57144949   -1.97437632   +3.14470221
 H   +0.57606979   -2.68545169   +4.28334380
 H   +2.36444363   -1.23249185   +3.50432645
 H   +1.66743222   -2.10118077   +2.15252800
 H   +1.15276483   +0.80721927   +2.88968518
 H   +2.10684689   +0.22088854   +1.54440300
 H   -0.94536128   +0.00371604   +1.84509561
 H   +0.81284435   +0.01225595   -0.71087732
 H   -2.10338691   -0.00803752   -0.95991686
22
 * E =  +1.914 kcal/mol ; (22) 007_072_193_062_180
 C   +0.00000000   +0.00000000   +0.00000000
 C   +0.00000000   +0.00000000   +1.31346971
 C   +1.20910186   +0.00000000   +2.20506406
 C   +2.53481841   +0.16875066   +1.48952248
 C   +2.73717699   +1.58570004   +0.96387526
 C   +3.88079145   +1.68850507   +0.00680251
 O   +3.67821339   +0.93421287   -1.07590581
 C   +4.71338584   +0.96838030   -2.04232442
 O   +4.86867983   +2.35436921   +0.15718264
 H   +4.39526306   +0.31266402   -2.84242969
 H   -1.32496808   -0.03920231   -0.61541168
 H   +5.64618834   +0.61966931   -1.61038839
 H   +4.85411636   +1.97986736   -2.41023653
 H   +1.83889252   +1.91360156   +0.44302288
 H   +2.92840722   +2.27818551   +1.77743849
 H   +2.59531350   -0.53949976   +0.66511986
 H   +3.34697097   -0.07522223   +2.17202736
 H   +1.21004516   -0.93967249   +2.75975155
 H   +1.08579629   +0.78194512   +2.95726397
 H   -0.95612663   -0.01851870   +1.82626718
 H   +0.79905297   +0.02071428   -0.72608444
 H   -2.11799304   -0.06614950   -0.91972863
22
 * E =  +2.269 kcal/mol ; (23) 350_289_296_327_182
 C   +0.00000000   +0.00000000   +0.00000000
 C   +0.00000000   +0.00000000   +1.31282805
 C   +1.20102104   +0.00000000   +2.21428449
 C   +2.53933747   -0.22532150   +1.53627197
 C   +2.73296335   -1.64603475   +1.03433577
 C   +2.77457820   -2.69503259   +2.10543977
 O   +3.32611168   -2.25239056   +3.23560416
 C   +3.43945925   -3.21314750   +4.27055666
 O   +2.39102042   -3.82524188   +1.97272220
 H   +3.89458973   -2.69724600   +5.10606357
 H   -1.32441271   +0.04286697   -0.61705443
 H   +4.06028654   -4.04355381   +3.94927882
 H   +2.46009309   -3.59403354   +4.54266649
 H   +1.95220673   -1.94622340   +0.34231133
 H   +3.67879272   -1.72429165   +0.49698740
 H   +3.33466925   +0.01085856   +2.23841748
 H   +2.64626097   +0.46319375   +0.69888337
 H   +1.05186781   -0.75126533   +2.99246346
 H   +1.21577268   +0.95631450   +2.73990655
 H   -0.95874939   +0.02340320   +1.82066938
 H   +0.79554085   -0.02073981   -0.72835635
 H   -2.11620823   +0.07288322   -0.92309700
22
 * E =  +2.285 kcal/mol ; (24) 246_298_185_310_181
 C   +0.00000000   +0.00000000   +0.00000000
 C   +0.00000000   +0.00000000   +1.31286993
 C   +1.23289387   +0.00000000   +2.16566317
 C   +1.40601738   -1.27210562   +2.98625396
 C   +0.27510910   -1.50112233   +3.97660395
 C   +0.49732946   -2.68077867   +4.87049260
 O   +0.83156465   -3.77056539   +4.18162264
 C   +1.03910979   -4.93858681   +4.95590098
 O   +0.38366212   -2.67696396   +6.06631186
 H   +1.29943310   -5.71847595   +4.25219519
 H   -1.31925365   -0.00691985   -0.62997656
 H   +0.13536472   -5.19850469   +5.49811956
 H   +1.84257126   -4.78228751   +5.66878800
 H   +0.13110632   -0.63902443   +4.62186699
 H   -0.65904445   -1.67620533   +3.44281554
 H   +2.34868476   -1.20639079   +3.52914143
 H   +1.48287259   -2.13047647   +2.32280734
 H   +1.19287311   +0.85796726   +2.83987819
 H   +2.10805496   +0.13735742   +1.53398469
 H   -0.95435890   +0.00188386   +1.82908371
 H   +0.81248365   +0.00730584   -0.71092339
 H   -2.10969433   -0.01129259   -0.94389174
22
 * E =  +2.322 kcal/mol ; (25) 109_063_289_311_178
 C   +0.00000000   +0.00000000   +0.00000000
 C   +0.00000000   +0.00000000   +1.31297152
 C   +1.23736910   +0.00000000   +2.16226855
 C   +1.49556388   +1.31475356   +2.89145341
 C   +0.42491932   +1.70429911   +3.90047284
 C   -0.87565226   +2.14073206   +3.29682148
 O   -0.69780193   +3.04501551   +2.33890520
 C   -1.87534310   +3.47458358   +1.67933027
 O   -1.96129883   +1.74613499   +3.63006809
 H   -2.57726922   +3.89756920   +2.39076778
 H   -1.32115945   +0.02683576   -0.62403302
 H   -2.34522461   +2.63713230   +1.17184447
 H   -1.55832841   +4.22076876   +0.96258442
 H   +0.20220976   +0.88931941   +4.58354949
 H   +0.78642505   +2.54129263   +4.49770209
 H   +1.61013107   +2.11712419   +2.16567836
 H   +2.44239706   +1.22596531   +3.42186012
 H   +2.10005485   -0.22734557   +1.53904706
 H   +1.15671428   -0.80423965   +2.89597883
 H   -0.95311374   -0.00595103   +1.83137061
 H   +0.81053177   -0.00733109   -0.71330120
 H   -2.11473096   +0.05087664   -0.93133505
22
 * E =  +2.350 kcal/mol ; (26) 244_297_184_052_179
 C   +0.00000000   +0.00000000   +0.00000000
 C   +0.00000000   +0.00000000   +1.31285388
 C   +1.23401509   +0.00000000   +2.16404100
 C   +1.39371932   -1.25369614   +3.01466111
 C   +0.27446116   -1.43598628   +4.02802322
 C   +0.48156648   -2.60745548   +4.93769080
 O   +1.67981399   -2.57951749   +5.51996616
 C   +1.94600171   -3.64642730   +6.41314690
 O   -0.32193081   -3.47492555   +5.14750752
 H   +2.94471561   -3.47364858   +6.79260665
 H   -1.31919371   -0.00838352   -0.63111971
 H   +1.89358845   -4.59755169   +5.89280481
 H   +1.22400620   -3.65035250   +7.22372160
 H   +0.20390978   -0.54585450   +4.65529449
 H   -0.68761654   -1.58270835   +3.54842870
 H   +2.34189061   -1.20137382   +3.54507921
 H   +1.43979879   -2.12593071   +2.36323640
 H   +1.20799080   +0.87245784   +2.82068451
 H   +2.10943671   +0.11248139   +1.52779149
 H   -0.95390193   -0.00072569   +1.82964884
 H   +0.81270987   +0.00710970   -0.71070317
 H   -2.10886041   -0.01376148   -0.94621595
22
 * E =  +2.415 kcal/mol ; (27) 114_055_276_138_179
 C   +0.00000000   +0.00000000   +0.00000000
 C   +0.00000000   +0.00000000   +1.31222798
 C   +1.22689885   +0.00000000   +2.17384316
 C   +1.40490857   +1.27394192   +2.99279964
 C   +0.20282755   +1.61676126   +3.85981651
 C   -0.85545700   +2.35889225   +3.09881144
 O   -2.08245635   +1.92922381   +3.38548143
 C   -3.13106420   +2.60364473   +2.71035048
 O   -0.64047777   +3.25758047   +2.33210810
 H   -3.02008344   +2.48957872   +1.63642075
 H   -1.32449186   +0.02369441   -0.61772339
 H   -3.12028888   +3.66102489   +2.95496061
 H   -4.04822892   +2.14158241   +3.05150716
 H   -0.23175017   +0.73447393   +4.32395851
 H   +0.50883965   +2.28413295   +4.66495825
 H   +1.60169186   +2.11664471   +2.33290969
 H   +2.27931275   +1.15101752   +3.62879619
 H   +2.10861545   -0.15436725   +1.55533051
 H   +1.16602742   -0.85089076   +2.85573571
 H   -0.95497453   -0.00226353   +1.82961954
 H   +0.80855232   -0.00018484   -0.71502017
 H   -2.12078498   +0.04286858   -0.91669536
22
 * E =  +7.631 kcal/mol ; (28) 121_299_291_172_358
 C   +0.00000000   +0.00000000   +0.00000000
 C   +0.00000000   +0.00000000   +1.31348621
 C   +1.22656504   +0.00000000   +2.17391157
 C   +1.28191480   +1.20341695   +3.10745426
 C   +1.32287999   +2.52751954   +2.37309964
 C   +2.62399776   +2.73811484   +1.64671977
 O   +2.71845292   +3.79261801   +0.82883249
 C   +1.62214614   +4.65114378   +0.61093265
 O   +3.57670261   +2.02538276   +1.78099512
 H   +1.99715682   +5.45400253   -0.01141491
 H   -1.31808679   -0.01160700   -0.63073128
 H   +1.24615882   +5.06995296   +1.54121904
 H   +0.81715011   +4.14181060   +0.08618864
 H   +0.49562508   +2.59882138   +1.66774224
 H   +1.19807068   +3.35656806   +3.07147859
 H   +2.16252811   +1.11817801   +3.73938042
 H   +0.40966868   +1.19722081   +3.76083332
 H   +2.12235171   -0.02556103   +1.55859163
 H   +1.22752745   -0.90777076   +2.77817516
 H   -0.95347852   +0.00388018   +1.83466295
 H   +0.81452771   -0.01295721   -0.70873825
 H   -2.10928267   -0.02183940   -0.94503987
22
 * E =  +8.238 kcal/mol ; (29) 121_296_180_180_001
 C   +0.00000000   +0.00000000   +0.00000000
 C   +0.00000000   +0.00000000   +1.31311229
 C   +1.22256991   +0.00000000   +2.18008806
 C   +1.27764009   +1.20118788   +3.11337255
 C   +1.38165094   +2.51079998   +2.36433228
 C   +1.42435556   +3.68836823   +3.29707606
 O   +1.51196580   +4.91018345   +2.75577382
 C   +1.54608852   +5.09012037   +1.35902118
 O   +1.38594083   +3.58512104   +4.48850134
 H   +1.61636288   +6.15915359   +1.20189823
 H   -1.31808662   -0.00110884   -0.63249173
 H   +0.64003272   +4.72100450   +0.88424974
 H   +2.41373028   +4.60935272   +0.91299865
 H   +2.27579381   +2.52433040   +1.73818237
 H   +0.54309059   +2.62720421   +1.67688192
 H   +2.12498851   +1.10544275   +3.78815716
 H   +0.39360512   +1.22384628   +3.74838843
 H   +2.11601166   -0.03616723   +1.55722527
 H   +1.22085399   -0.90969084   +2.78133653
 H   -0.95221371   +0.00789428   +1.83570010
 H   +0.81313227   -0.01373370   -0.71023762
 H   -2.10728734   -0.00258663   -0.94969471
22
 * E =  +8.340 kcal/mol ; (30) 120_177_289_173_358
 C   +0.00000000   +0.00000000   +0.00000000
 C   +0.00000000   +0.00000000   +1.31261181
 C   +1.22302607   +0.00000000   +2.17567079
 C   +1.28028601   +1.22164579   +3.08028405
 C   +2.47729628   +1.20754045   +4.00848810
 C   +2.34848435   +0.17179604   +5.09415555
 O   +3.40266405   -0.03019590   +5.89312643
 C   +4.61000096   +0.67228387   +5.70839809
 O   +1.34908730   -0.45748483   +5.28752221
 H   +5.24626013   +0.38583473   +6.53637818
 H   -1.32067935   +0.00027695   -0.63197317
 H   +4.45944444   +1.74880174   +5.73332027
 H   +5.09543615   +0.39167545   +4.77633200
 H   +3.39864620   +1.04095074   +3.44974049
 H   +2.59554568   +2.17776093   +4.49362073
 H   +0.37260909   +1.27206367   +3.67850432
 H   +1.31683748   +2.12145710   +2.46860524
 H   +2.11482678   -0.04317791   +1.55043752
 H   +1.21130053   -0.89550824   +2.79670855
 H   -0.95024445   +0.00239677   +1.83731595
 H   +0.81086886   -0.00657471   -0.71267398
 H   -2.10923773   +0.00071256   -0.94801687
22
 * E =  +8.524 kcal/mol ; (31) 118_175_070_187_002
 C   +0.00000000   +0.00000000   +0.00000000
 C   +0.00000000   +0.00000000   +1.31238976
 C   +1.22760447   +0.00000000   +2.17002574
 C   +1.30659317   +1.24099890   +3.04646126
 C   +2.47547249   +1.21052175   +4.00951920
 C   +3.80198448   +1.35392916   +3.31150361
 O   +4.91178912   +1.20790706   +4.04544209
 C   +4.84960456   +0.89429841   +5.41751502
 O   +3.90980729   +1.61053604   +2.14780839
 H   +5.87246572   +0.92142601   +5.77178480
 H   -1.32211103   +0.00819625   -0.62605778
 H   +4.44576060   -0.10240259   +5.58072807
 H   +4.26344019   +1.62244444   +5.97290667
 H   +2.39576439   +2.02447405   +4.73192877
 H   +2.46868835   +0.29122808   +4.59601197
 H   +0.38651666   +1.33913943   +3.62213186
 H   +1.38699883   +2.12099505   +2.41244865
 H   +2.11723759   -0.06489786   +1.54913375
 H   +1.20571430   -0.88747765   +2.80780283
 H   -0.95197594   +0.01143155   +1.83497691
 H   +0.81164489   -0.00427199   -0.71139935
 H   -2.11407501   +0.01292469   -0.93557981
22
 * E =  +8.524 kcal/mol ; (32) 002_177_070_186_002
 C   +0.00000000   +0.00000000   +0.00000000
 C   +0.00000000   +0.00000000   +1.31283055
 C   +1.20754964   +0.00000000   +2.20050968
 C   +2.53081449   +0.04426207   +1.46645862
 C   +3.72018396   +0.11920658   +2.40111738
 C   +3.94677847   -1.16379405   +3.15588890
 O   +4.89445694   -1.17212745   +4.10118401
 C   +5.63654143   -0.01476451   +4.40901352
 O   +3.33980945   -2.17180636   +2.93876816
 H   +6.37326109   -0.32404103   +5.13981759
 H   -1.32720689   -0.00753718   -0.61835965
 H   +5.00801897   +0.75765465   +4.84653219
 H   +6.14924979   +0.38132239   +3.53580571
 H   +4.63134045   +0.33487941   +1.84093935
 H   +3.60503845   +0.94253444   +3.10681058
 H   +2.55196094   +0.91313138   +0.80949522
 H   +2.62703204   -0.84038913   +0.84006514
 H   +1.17068772   -0.88932453   +2.82983010
 H   +1.12932471   +0.85627696   +2.87550834
 H   -0.95575855   -0.00675515   +1.82636602
 H   +0.79596091   -0.00366716   -0.72759165
 H   -2.11872841   -0.01225265   -0.92433925
22
 * E =  +8.587 kcal/mol ; (33) 010_069_072_186_002
 C   +0.00000000   +0.00000000   +0.00000000
 C   +0.00000000   +0.00000000   +1.31371752
 C   +1.19947384   +0.00000000   +2.21687123
 C   +2.53476687   +0.24269265   +1.53958620
 C   +2.69723332   +1.66019852   +1.02559901
 C   +2.87876659   +2.65098496   +2.14467377
 O   +2.90601987   +3.95046580   +1.82762406
 C   +2.72111673   +4.38620622   +0.50029237
 O   +3.01650307   +2.33427500   +3.29094442
 H   +2.86340917   +5.45941951   +0.52128196
 H   -1.32242551   -0.04334746   -0.62124321
 H   +1.71592776   +4.16903273   +0.14641609
 H   +3.45067253   +3.94553565   -0.17489184
 H   +3.56968086   +1.73526487   +0.37459306
 H   +1.84234156   +1.95401934   +0.41826139
 H   +2.66141749   -0.45355943   +0.71152312
 H   +3.32963386   +0.04125577   +2.25292077
 H   +1.22312351   -0.96306754   +2.72933974
 H   +1.05268910   +0.74022312   +3.00313858
 H   -0.95957331   -0.02058271   +1.82036088
 H   +0.79818160   +0.00860965   -0.72627173
 H   -2.11301008   -0.07375165   -0.93148299
22
 * E =  +8.614 kcal/mol ; (34) 000_180_180_180_000
 C   +0.00000000   +0.00000000   +0.00000000
 C   +0.00000000   +0.00000000   +1.31270486
 C   +1.21312777   +0.00000000   +2.19433305
 C   +2.53235275   -0.00000001   +1.45373776
 C   +3.71391275   -0.00000012   +2.39728890
 C   +5.02251287   -0.00000012   +1.65548372
 O   +6.15006969   -0.00000071   +2.37808004
 C   +6.11762244   -0.00000109   +3.78610636
 O   +5.09989998   +0.00000037   +0.46203250
 H   +7.15258626   -0.00000064   +4.10432346
 H   -1.32850439   -0.00000002   -0.61431907
 H   +5.62771737   -0.88894280   +4.17682272
 H   +5.62771644   +0.88893989   +4.17682325
 H   +3.68315348   +0.86971591   +3.05580084
 H   +3.68315344   -0.86971626   +3.05580071
 H   +2.59786569   +0.86877458   +0.80166159
 H   +2.59786560   -0.86877454   +0.80166149
 H   +1.15316274   -0.86948422   +2.85344326
 H   +1.15316276   +0.86948423   +2.85344326
 H   -0.95436239   -0.00000001   +1.82885407
 H   +0.79669069   +0.00000001   -0.72696652
 H   -2.12173587   -0.00000003   -0.91604080
22
 * E =  +8.842 kcal/mol ; (35) 121_177_181_181_001
 C   +0.00000000   +0.00000000   +0.00000000
 C   +0.00000000   +0.00000000   +1.31232723
 C   +1.22479288   +0.00000000   +2.17420998
 C   +1.27161169   +1.20209450   +3.10303304
 C   +2.47718388   +1.16520460   +4.01578196
 C   +2.51231449   +2.34503163   +4.94828093
 O   +3.54802347   +2.44423416   +5.79173617
 C   +4.58265642   +1.48871084   +5.79863407
 O   +1.66348904   +3.18696580   +4.97294072
 H   +5.26073479   +1.79502998   +6.58529445
 H   -1.32173094   +0.01176110   -0.62881043
 H   +5.12154585   +1.47428503   +4.85392681
 H   +4.20961525   +0.49188915   +6.02204409
 H   +2.48135958   +0.24970354   +4.61022520
 H   +3.40068514   +1.14364848   +3.43510692
 H   +0.36834481   +1.24601117   +3.70875778
 H   +1.28473692   +2.12198898   +2.52277516
 H   +2.11536337   -0.02844088   +1.54702785
 H   +1.23031846   -0.91614256   +2.76975775
 H   -0.95092816   +0.01023787   +1.83590558
 H   +0.81040334   -0.00490186   -0.71303636
 H   -2.11131251   +0.02072594   -0.94162069
22
 * E =  +8.930 kcal/mol ; (36) 240_055_273_167_355
 C   +0.00000000   +0.00000000   +0.00000000
 C   +0.00000000   +0.00000000   +1.31380531
 C   +1.23985333   +0.00000000   +2.15518813
 C   +1.35064399   -1.21896117   +3.06543976
 C   +1.26776162   -2.53071150   +2.30730024
 C   -0.15252351   -3.00372385   +2.12431406
 O   -0.37586254   -3.99558465   +1.25630691
 C   +0.65823978   -4.52265438   +0.45829110
 O   -1.07433236   -2.57172875   +2.75407367
 H   +1.49542042   -4.87172234   +1.05818917
 H   -1.31644728   -0.00864621   -0.64405014
 H   +1.00513076   -3.79410510   -0.27093213
 H   +0.22406395   -5.36542116   -0.06514552
 H   +1.76538978   -2.44703751   +1.34217118
 H   +1.78818333   -3.32265899   +2.84914308
 H   +0.56097138   -1.20051233   +3.81277843
 H   +2.30040498   -1.16664450   +3.59382864
 H   +1.24922058   +0.89881600   +2.77270171
 H   +2.11487272   +0.05321557   +1.50716099
 H   -0.94457853   -0.03097769   +1.84527795
 H   +0.81648628   +0.02316009   -0.70697372
 H   -2.09814849   -0.01122893   -0.97498223
22
 * E =  +8.980 kcal/mol ; (37) 012_070_183_182_001
 C   +0.00000000   +0.00000000   +0.00000000
 C   +0.00000000   +0.00000000   +1.31324865
 C   +1.20624502   +0.00000000   +2.20910396
 C   +2.53241874   +0.27667979   +1.52866608
 C   +2.66131950   +1.71174170   +1.06302353
 C   +3.95206863   +1.95085187   +0.33136266
 O   +4.20763886   +3.19498322   -0.09349221
 C   +3.30601690   +4.24998463   +0.14821431
 O   +4.75101737   +1.08844164   +0.10872713
 H   +3.73556610   +5.11994161   -0.33254251
 H   -1.32353621   -0.05085498   -0.61716492
 H   +3.20042174   +4.45030921   +1.21208188
 H   +2.32839592   +4.05239404   -0.28492436
 H   +1.83070925   +1.98546763   +0.41176305
 H   +2.60321265   +2.39335242   +1.91310738
 H   +2.67520204   -0.39294271   +0.68315152
 H   +3.34722846   +0.05729331   +2.21456375
 H   +1.24692410   -0.97268556   +2.70205241
 H   +1.03876614   +0.72273602   +3.01046091
 H   -0.95782435   -0.02851406   +1.82262310
 H   +0.79781932   +0.01152252   -0.72665897
 H   -2.11570063   -0.08562290   -0.92252994
22
 * E =  +9.056 kcal/mol ; (38) 249_300_292_173_359
 C   +0.00000000   +0.00000000   +0.00000000
 C   +0.00000000   +0.00000000   +1.31307758
 C   +1.22915233   +0.00000000   +2.17122599
 C   +1.44464111   -1.30830975   +2.92463117
 C   +0.32564540   -1.67934725   +3.87753376
 C   +0.23593982   -0.74598022   +5.05508599
 O   -0.79981884   -0.89078120   +5.89023048
 C   -1.79454451   -1.86328408   +5.66600627
 O   +1.05183093   +0.09776767   +5.28961751
 H   -2.44746698   -1.81988602   +6.52871335
 H   -1.31930789   -0.00357815   -0.62846738
 H   -1.37311525   -2.86270222   +5.59060379
 H   -2.37461078   -1.64212195   +4.77284426
 H   -0.63347145   -1.72186573   +3.36293915
 H   +0.48891271   -2.68435254   +4.27014556
 H   +2.37054373   -1.23153745   +3.49032833
 H   +1.56439468   -2.11700896   +2.20546431
 H   +1.16840476   +0.81514167   +2.89102664
 H   +2.10122281   +0.18948858   +1.54906574
 H   -0.95798590   +0.00413146   +1.82363648
 H   +0.81204022   +0.01305342   -0.71138200
 H   -2.11159073   -0.00503567   -0.93936074
22
 * E =  +9.384 kcal/mol ; (39) 246_299_186_182_001
 C   +0.00000000   +0.00000000   +0.00000000
 C   +0.00000000   +0.00000000   +1.31280870
 C   +1.23103543   +0.00000000   +2.16888625
 C   +1.41642423   -1.27795262   +2.97623796
 C   +0.28684284   -1.54347852   +3.94774308
 C   +0.57316224   -2.73349370   +4.82270288
 O   -0.36839513   -3.10347662   +5.70029826
 C   -1.59942448   -2.42451232   +5.78508736
 O   +1.59481864   -3.35336250   +4.77515092
 H   -2.14481768   -2.90376944   +6.58840837
 H   -1.32011945   -0.00899112   -0.62657075
 H   -2.17218049   -2.51753362   +4.86511314
 H   -1.46481317   -1.37302381   +6.02784647
 H   +0.11861088   -0.67496792   +4.58828867
 H   -0.65344220   -1.71343905   +3.42320022
 H   +2.34887849   -1.22149020   +3.53302327
 H   +1.51687616   -2.12793210   +2.30461119
 H   +1.18256933   +0.85234578   +2.85037943
 H   +2.10610133   +0.15210559   +1.54088568
 H   -0.95596939   +0.00029163   +1.82688047
 H   +0.81172715   +0.00778066   -0.71164356
 H   -2.11264993   -0.01451729   -0.93598430
22
 * E =  +9.637 kcal/mol ; (40) 254_065_063_089_007
 C   +0.00000000   +0.00000000   +0.00000000
 C   +0.00000000   +0.00000000   +1.31314697
 C   +1.24050181   +0.00000000   +2.15592000
 C   +1.50393527   -1.35907161   +2.79565959
 C   +1.80754984   -2.45800400   +1.77608530
 C   +3.06668571   -2.15700141   +1.01325432
 O   +4.23919036   -2.58315034   +1.50009044
 C   +4.31061160   -3.42244942   +2.62970826
 O   +3.06968340   -1.50106125   +0.01009698
 H   +5.36585192   -3.53235772   +2.84721726
 H   -1.32086497   -0.01036216   -0.62391273
 H   +3.88914065   -4.40304332   +2.42058841
 H   +3.81485786   -2.98584677   +3.49306425
 H   +1.85454400   -3.42330754   +2.27175460
 H   +1.00821881   -2.49235076   +1.04184417
 H   +0.63255729   -1.66733201   +3.37272764
 H   +2.32674992   -1.26345103   +3.50444724
 H   +1.13348639   +0.74158306   +2.94736312
 H   +2.09338845   +0.29611128   +1.54988781
 H   -0.94732084   -0.02716135   +1.84303917
 H   +0.81978342   +0.00440390   -0.70264371
 H   -2.11541563   -0.01276899   -0.93117718
22
 * E = +10.391 kcal/mol ; (41) 000_182_299_273_352
 C   +0.00000000   +0.00000000   +0.00000000
 C   +0.00000000   +0.00000000   +1.31315132
 C   +1.20424921   +0.00000000   +2.20497553
 C   +2.52751591   +0.00776798   +1.46968867
 C   +3.73517420   -0.04595691   +2.40496052
 C   +3.77777154   +1.14700420   +3.31989754
 O   +4.38249469   +2.26460594   +2.89809899
 C   +5.11799675   +2.30203237   +1.69652413
 O   +3.24379242   +1.15258106   +4.39176340
 H   +5.41703133   +3.33491726   +1.56790667
 H   -1.32656639   +0.00100588   -0.61924060
 H   +4.51886093   +1.99870112   +0.84194875
 H   +6.00939104   +1.68204713   +1.76036463
 H   +3.65659701   -0.91661595   +3.04925042
 H   +4.64904447   -0.14093155   +1.82497648
 H   +2.58045883   +0.89114704   +0.83217950
 H   +2.57870432   -0.85401545   +0.80533085
 H   +1.15117749   -0.87454634   +2.85634041
 H   +1.13813289   +0.85579538   +2.87724227
 H   -0.95595340   +0.00164721   +1.82611677
 H   +0.79558045   -0.00054283   -0.72825617
 H   -2.11747869   +0.00102497   -0.92639690
22
 * E = +10.462 kcal/mol ; (42) 123_297_177_092_005
 C   +0.00000000   +0.00000000   +0.00000000
 C   +0.00000000   +0.00000000   +1.31273830
 C   +1.22471291   +0.00000000   +2.17579600
 C   +1.26647398   +1.18284412   +3.13329395
 C   +1.32960758   +2.52122150   +2.40549249
 C   +1.30173287   +3.65412360   +3.39337963
 O   +2.46087616   +4.15208255   +3.84506864
 C   +3.70107358   +3.70578495   +3.34897062
 O   +0.27850776   +4.09493346   +3.82994214
 H   +4.45335490   +4.19158206   +3.95818140
 H   -1.31913923   -0.00529579   -0.63242484
 H   +3.84271725   +4.00050321   +2.31159668
 H   +3.81242475   +2.62811141   +3.44377781
 H   +2.20177912   +2.55474535   +1.75688377
 H   +0.44855796   +2.63494456   +1.78150434
 H   +2.12471320   +1.07197070   +3.79611974
 H   +0.38201167   +1.17613544   +3.76909814
 H   +2.11713097   -0.00888692   +1.55080182
 H   +1.23885236   -0.92063609   +2.76052850
 H   -0.95108647   +0.00471564   +1.83684948
 H   +0.81274637   -0.00508851   -0.71062032
 H   -2.10732901   -0.00970276   -0.94959159
22
 * E = +10.475 kcal/mol ; (43) 001_180_177_090_006
 C   +0.00000000   +0.00000000   +0.00000000
 C   +0.00000000   +0.00000000   +1.31274167
 C   +1.21027805   +0.00000000   +2.19778834
 C   +2.53346597   +0.02641327   +1.46437168
 C   +3.71558812   +0.02533978   +2.42740241
 C   +5.01382566   -0.01314518   +1.66840021
 O   +5.58997490   +1.14223123   +1.31260554
 C   +5.07938835   +2.38540470   +1.73549172
 O   +5.52319234   -1.04038065   +1.32658050
 H   +5.66990133   +3.13497268   +1.22332764
 H   -1.32766955   -0.00313880   -0.61535519
 H   +5.19672277   +2.51653766   +2.80886139
 H   +4.03483542   +2.51082184   +1.46094919
 H   +3.65684470   +0.87841187   +3.09929136
 H   +3.69218119   -0.87753944   +3.03028248
 H   +2.57203997   +0.90418680   +0.81802749
 H   +2.61448877   -0.84234638   +0.81298846
 H   +1.16449691   -0.88114041   +2.84121103
 H   +1.14086797   +0.85752550   +2.87092348
 H   -0.95469353   -0.00185355   +1.82812193
 H   +0.79604403   -0.00400940   -0.72763804
 H   -2.12028171   -0.00535971   -0.91804518
22
 * E = +10.594 kcal/mol ; (44) 240_182_183_270_354
 C   +0.00000000   +0.00000000   +0.00000000
 C   +0.00000000   +0.00000000   +1.31230786
 C   +1.22638851   +0.00000000   +2.17181079
 C   +1.29133239   -1.21676059   +3.08081035
 C   +2.51761722   -1.18120387   +3.98683258
 C   +2.60086317   -2.43277166   +4.81711701
 O   +1.99533434   -2.45868183   +6.01156715
 C   +1.39490365   -1.30956088   +6.56216436
 O   +3.14642856   -3.42316911   +4.42621192
 H   +0.90439299   -1.64027469   +7.46931694
 H   -1.32229852   -0.00859189   -0.62633324
 H   +0.65107305   -0.88010559   +5.89542771
 H   +2.13877148   -0.55798654   +6.81698617
 H   +3.41645142   -1.16384802   +3.37770509
 H   +2.50957514   -0.28104099   +4.59703137
 H   +1.32263837   -2.12321736   +2.47945788
 H   +0.38044357   -1.27354671   +3.67859550
 H   +1.22705422   +0.90534777   +2.78307661
 H   +2.11707517   +0.04140921   +1.54674544
 H   -0.95144921   -0.00744156   +1.83528792
 H   +0.81036326   +0.00406872   -0.71295332
 H   -2.11318443   -0.01516663   -0.93605657
22
 * E = +12.039 kcal/mol ; (45) 111_086_307_275_353
 C   +0.00000000   +0.00000000   +0.00000000
 C   +0.00000000   +0.00000000   +1.31343689
 C   +1.24972917   +0.00000000   +2.14627825
 C   +1.47802603   +1.30279795   +2.91492263
 C   +0.78746134   +1.37775669   +4.27809996
 C   -0.68359004   +1.07541964   +4.21670955
 O   -1.54000464   +2.05711158   +3.91548150
 C   -1.11821983   +3.39797879   +3.80620740
 O   -1.11233586   -0.03129571   +4.38219174
 H   -1.98479910   +3.95133055   +3.46655788
 H   -1.31768293   +0.00916604   -0.63802414
 H   -0.31825690   +3.51441510   +3.08063825
 H   -0.80398990   +3.79029928   +4.77075083
 H   +1.20908995   +0.61807613   +4.92924926
 H   +0.97715749   +2.34818180   +4.73039854
 H   +1.18459993   +2.14137150   +2.28502284
 H   +2.54416228   +1.42090540   +3.10050905
 H   +2.10246797   -0.17349987   +1.49342252
 H   +1.20797522   -0.83332074   +2.84904131
 H   -0.94782723   -0.00375457   +1.83850679
 H   +0.81297107   -0.01662880   -0.71082546
 H   -2.10241199   +0.01456933   -0.96396921
