22
 * E =  +0.000 kcal/mol ; (1) 120_299_291_173_179
 C   +0.00000000   +0.00000000   +0.00000000
 C   +0.00000000   +0.00000000   +1.31343265
 C   +1.06094935   +0.00000000   +2.33779110
 C   +0.99978681   +1.21315382   +3.26025278
 C   +1.16955275   +2.53126745   +2.53632855
 C   +2.55145117   +2.72747993   +1.99419181
 O   +2.63368753   +3.82295559   +1.24404575
 C   +3.91645855   +4.10170448   +0.71165697
 O   +3.49355701   +2.01071410   +2.20566706
 H   +3.80674241   +5.01132191   +0.13576422
 H   -0.91884839   -0.00169192   -0.56854129
 H   +4.24899172   +3.28583686   +0.07756780
 H   +4.63711046   +4.24030380   +1.51155963
 H   +0.46533621   +2.62888305   +1.71136498
 H   +0.96904118   +3.37048016   +3.20183636
 H   +1.77665592   +1.11433169   +4.01492647
 H   +0.04222645   +1.22081055   +3.77850799
 H   +2.03662420   -0.04132079   +1.84926198
 H   +0.97219656   -0.90326877   +2.94187742
 H   -1.29282843   +0.00109160   +1.88005278
 H   +0.92822343   -0.00744011   -0.56147956
 H   -2.10835648   -0.01014090   +2.21302239
22
 * E =  +0.501 kcal/mol ; (2) 118_176_068_190_182
 C   +0.00000000   +0.00000000   +0.00000000
 C   +0.00000000   +0.00000000   +1.31267939
 C   +1.06152927   +0.00000000   +2.33547043
 C   +1.02616898   +1.24587204   +3.21044252
 C   +2.05465853   +1.21264020   +4.32011592
 C   +3.46358014   +1.30910593   +3.81956405
 O   +4.34495612   +1.07368148   +4.78775266
 C   +5.70675053   +1.17972346   +4.41044679
 O   +3.78688353   +1.58178862   +2.69465204
 H   +6.27888040   +0.96657856   +5.30389121
 H   -0.91916943   +0.00449072   -0.56777381
 H   +5.92239191   +2.17969479   +4.04745597
 H   +5.93949554   +0.46437501   +3.62794498
 H   +1.91067751   +2.04578469   +5.00802646
 H   +1.96857886   +0.31121791   +4.92554757
 H   +0.03608216   +1.34757259   +3.65166552
 H   +1.19274591   +2.12192594   +2.58750832
 H   +2.03241520   -0.07430257   +1.84142060
 H   +0.94905641   -0.88522974   +2.96552161
 H   -1.29360178   +0.00103673   +1.88416269
 H   +0.92807575   -0.00286570   -0.56124849
 H   -2.10450480   -0.00998530   +2.22341560
22
 * E =  +0.531 kcal/mol ; (3) 254_305_297_169_179
 C   +0.00000000   +0.00000000   +0.00000000
 C   +0.00000000   +0.00000000   +1.31348199
 C   +1.06413951   +0.00000000   +2.33607015
 C   +1.23573536   -1.33985902   +3.04707879
 C   -0.02868035   -1.87228929   +3.68915325
 C   -0.54937590   -0.99419069   +4.78449209
 O   -1.77160755   -1.35320983   +5.16379067
 C   -2.33427716   -0.58422376   +6.21206250
 O   +0.05119897   -0.08380011   +5.29133013
 H   -3.31590364   -1.00265078   +6.39196605
 H   -0.91826353   +0.00624521   -0.56909954
 H   -2.41134213   +0.45724240   +5.91620372
 H   -1.71986680   -0.65209822   +7.10443780
 H   -0.82391606   -2.02040157   +2.96143419
 H   +0.15434356   -2.85111890   +4.13273946
 H   +2.00321724   -1.22513438   +3.80965622
 H   +1.59279285   -2.07940637   +2.33264470
 H   +0.85474173   +0.76859462   +3.07871501
 H   +2.00720984   +0.27130115   +1.85627497
 H   -1.28994137   +0.05841559   +1.86058054
 H   +0.92816623   -0.00052331   -0.56162568
 H   -2.10825510   +0.11527149   +2.19164698
22
 * E =  +0.624 kcal/mol ; (4) 120_297_180_179_180
 C   +0.00000000   +0.00000000   +0.00000000
 C   +0.00000000   +0.00000000   +1.31315195
 C   +1.06109694   +0.00000000   +2.33818317
 C   +1.00640442   +1.21178444   +3.25966913
 C   +1.22302689   +2.51089062   +2.51819408
 C   +1.17966579   +3.70156357   +3.42228377
 O   +1.40207152   +4.83243523   +2.75560426
 C   +1.37304274   +6.01352759   +3.53701398
 O   +0.97234729   +3.67156484   +4.60526566
 H   +1.57118535   +6.82724826   +2.85156937
 H   -0.91909994   -0.00248665   -0.56795010
 H   +2.13143849   +5.97371172   +4.31268284
 H   +0.40051779   +6.13530744   +4.00363793
 H   +2.18360713   +2.51961031   +2.00224432
 H   +0.47305706   +2.65263225   +1.74043081
 H   +1.75879319   +1.10740899   +4.03808500
 H   +0.04583034   +1.24288337   +3.77031748
 H   +2.03297872   -0.05006278   +1.83759514
 H   +0.97306238   -0.90495270   +2.93967831
 H   -1.29381609   -0.00212308   +1.88116694
 H   +0.92743046   -0.00348016   -0.56297934
 H   -2.10867756   -0.01637808   +2.21061360
22
 * E =  +0.653 kcal/mol ; (5) 002_177_069_190_182
 C   +0.00000000   +0.00000000   +0.00000000
 C   +0.00000000   +0.00000000   +1.31322659
 C   +1.05760087   +0.00000000   +2.34126020
 C   +2.46326227   +0.05150380   +1.76197087
 C   +3.53264862   +0.11928302   +2.83111767
 C   +3.65303714   -1.14683142   +3.62348059
 O   +4.44187194   -0.98911478   +4.68269612
 C   +4.64169556   -2.15018559   +5.47056304
 O   +3.12939248   -2.19271938   +3.34836482
 H   +5.29728171   -1.85086121   +6.27775636
 H   -0.92152496   -0.00333933   -0.56379565
 H   +5.09897505   -2.93591575   +4.87749377
 H   +3.69484860   -2.51036142   +5.86022906
 H   +4.51183676   +0.30379347   +2.38892120
 H   +3.36170954   +0.94182406   +3.52420938
 H   +2.55579344   +0.92373021   +1.11676184
 H   +2.62835545   -0.82925546   +1.14433633
 H   +0.95151212   -0.89348202   +2.95711381
 H   +0.89971244   +0.85280942   +3.00550310
 H   -1.29666565   -0.00277086   +1.87322528
 H   +0.92304063   -0.00177177   -0.56919699
 H   -2.11252615   -0.00193089   +2.19528032
22
 * E =  +0.707 kcal/mol ; (6) 120_182_291_170_178
 C   +0.00000000   +0.00000000   +0.00000000
 C   +0.00000000   +0.00000000   +1.31305426
 C   +1.06396832   +0.00000000   +2.33290185
 C   +0.99482459   +1.21285487   +3.25112119
 C   +2.11600767   +1.24276074   +4.26734425
 C   +2.00775086   +0.16008055   +5.29745276
 O   +3.11127714   +0.07368774   +6.03558022
 C   +3.08071617   -0.90140138   +7.06348654
 O   +1.04936223   -0.54359225   +5.47090676
 H   +4.03993218   -0.83784054   +7.56036250
 H   -0.91932704   +0.00015117   -0.56749400
 H   +2.93309515   -1.89082978   +6.64230395
 H   +2.27460990   -0.69251464   +7.75974523
 H   +3.09441968   +1.16813461   +3.79466605
 H   +2.12086814   +2.18821155   +4.80983571
 H   +0.03842058   +1.21291377   +3.77023073
 H   +1.03690685   +2.12029981   +2.65185165
 H   +2.03403281   -0.03113768   +1.82666284
 H   +0.98424042   -0.90388996   +2.93670563
 H   -1.29863547   -0.00024107   +1.87516797
 H   +0.92700346   -0.00429469   -0.56359685
 H   -2.11678211   -0.00752784   +2.19083141
22
 * E =  +0.744 kcal/mol ; (7) 000_180_180_180_180
 C   +0.00000000   +0.00000000   +0.00000000
 C   +0.00000000   +0.00000000   +1.31300503
 C   +1.06144152   +0.00000000   +2.33829742
 C   +2.46489458   -0.00000042   +1.75475559
 C   +3.52281280   -0.00000011   +2.83461678
 C   +4.91169224   +0.00000005   +2.27579348
 O   +5.82805312   -0.00000152   +3.24087109
 C   +7.17469286   -0.00000121   +2.79973326
 O   +5.19129514   +0.00000146   +1.10783008
 H   +7.78013394   -0.00000026   +3.69668358
 H   -0.92190784   +0.00000003   -0.56323263
 H   +7.37707974   +0.88295080   +2.20167553
 H   +7.37708058   -0.88295398   +2.20167694
 H   +3.42885447   +0.86863800   +3.48648477
 H   +3.42885478   -0.86863795   +3.48648517
 H   +2.60004183   +0.87004819   +1.11515020
 H   +2.60004154   -0.87004960   +1.11515091
 H   +0.92534811   -0.87001775   +2.98421450
 H   +0.92534847   +0.87001811   +2.98421409
 H   -1.29665775   +0.00000007   +1.87894195
 H   +0.92347902   -0.00000005   -0.56853867
 H   -2.10877200   +0.00000012   +2.20714363
22
 * E =  +0.770 kcal/mol ; (8) 350_290_289_173_179
 C   +0.00000000   +0.00000000   +0.00000000
 C   +0.00000000   +0.00000000   +1.31376995
 C   +1.04875141   +0.00000000   +2.35368062
 C   +2.45805355   -0.24284834   +1.82601751
 C   +2.68265531   -1.65733483   +1.33258035
 C   +2.72005568   -2.65731098   +2.44768002
 O   +2.77286255   -3.90365184   +1.98710680
 C   +2.83424330   -4.91629408   +2.97632665
 O   +2.71877100   -2.39427927   +3.62071449
 H   +2.87320568   -5.85404036   +2.43769587
 H   -0.92152469   +0.02111377   -0.56354646
 H   +1.95566568   -4.87737422   +3.61249514
 H   +3.71956871   -4.79160257   +3.59190412
 H   +1.91687543   -1.96994675   +0.62525770
 H   +3.63149299   -1.74109281   +0.80298098
 H   +3.16400574   -0.03574506   +2.62720742
 H   +2.67216855   +0.45739936   +1.02007600
 H   +0.81350198   -0.74582341   +3.11313914
 H   +1.01464489   +0.96052633   +2.86940726
 H   -1.29571111   +0.02758527   +1.86192558
 H   +0.92161799   -0.01695971   -0.57258792
 H   -2.11719712   +0.04230329   +2.17620806
22
 * E =  +1.037 kcal/mol ; (9) 254_300_186_182_180
 C   +0.00000000   +0.00000000   +0.00000000
 C   +0.00000000   +0.00000000   +1.31338290
 C   +1.07412958   +0.00000000   +2.32702475
 C   +1.25634508   -1.33691739   +3.03523288
 C   +0.01806905   -1.78862512   +3.77682426
 C   +0.25712735   -3.02947022   +4.57814020
 O   -0.84903687   -3.43374930   +5.19820730
 C   -0.71170343   -4.60383146   +5.98463589
 O   +1.30595593   -3.60826673   +4.67054624
 H   -1.68890004   -4.79079562   +6.41045907
 H   -0.91862434   -0.00286498   -0.56844974
 H   +0.02357702   -4.44996048   +6.76829241
 H   -0.39720838   -5.44000516   +5.36799257
 H   -0.34118792   -1.01792635   +4.45998685
 H   -0.81072935   -1.98497336   +3.09829523
 H   +2.08430303   -1.25884457   +3.73643244
 H   +1.54067740   -2.09745914   +2.31097672
 H   +0.86932039   +0.77708820   +3.06577970
 H   +2.01012884   +0.27670542   +1.83663366
 H   -1.29808333   +0.04397159   +1.85496450
 H   +0.92790315   +0.00524148   -0.56189220
 H   -2.12200156   +0.09385446   +2.16201304
22
 * E =  +1.051 kcal/mol ; (10) 118_178_180_179_180
 C   +0.00000000   +0.00000000   +0.00000000
 C   +0.00000000   +0.00000000   +1.31262870
 C   +1.06376171   +0.00000000   +2.33335306
 C   +1.03129803   +1.23775193   +3.21764700
 C   +2.09884266   +1.18908537   +4.28683300
 C   +2.09132584   +2.40052752   +5.16583457
 O   +3.03209518   +2.32902789   +6.10528227
 C   +3.09700893   +3.43802950   +6.98470522
 O   +1.34330312   +3.33371334   +5.05932004
 H   +3.89995571   +3.22060872   +7.67692549
 H   -0.91902879   +0.00669841   -0.56780639
 H   +2.15702496   +3.55679156   +7.51442012
 H   +3.30524551   +4.34845935   +6.43146401
 H   +1.98205700   +0.31473058   +4.92743017
 H   +3.09530168   +1.10343990   +3.85264994
 H   +0.05300155   +1.33267074   +3.68479449
 H   +1.16134261   +2.12988243   +2.60914483
 H   +2.03314236   -0.08040292   +1.83233456
 H   +0.96093153   -0.89194933   +2.95497288
 H   -1.29501946   +0.00412641   +1.88389864
 H   +0.92715957   -0.00734290   -0.56323519
 H   -2.10596949   -0.00421781   +2.21787022
22
 * E =  +1.178 kcal/mol ; (11) 012_070_183_187_181
 C   +0.00000000   +0.00000000   +0.00000000
 C   +0.00000000   +0.00000000   +1.31340384
 C   +1.05548679   +0.00000000   +2.34799966
 C   +2.45515262   +0.28377149   +1.81877285
 C   +2.62969685   +1.71820280   +1.36980460
 C   +3.98210953   +1.97467522   +0.78434162
 O   +4.16837594   +3.26698243   +0.52576944
 C   +5.41988847   +3.59743007   -0.05006898
 O   +4.81314049   +1.13697089   +0.55777532
 H   +5.40575233   +4.66995369   -0.19372679
 H   -0.92147166   -0.02535865   -0.56335947
 H   +5.54717380   +3.08638721   -0.99927641
 H   +6.22971772   +3.31125545   +0.61367492
 H   +1.88915617   +1.99394071   +0.61949485
 H   +2.48225689   +2.41387808   +2.19518657
 H   +2.69038797   -0.38853838   +0.99611852
 H   +3.18104461   +0.06305921   +2.59887557
 H   +1.04285392   -0.97167891   +2.84335697
 H   +0.79527433   +0.72594230   +3.12094436
 H   -1.29461957   -0.03506656   +1.86991323
 H   +0.92229635   +0.01829688   -0.57141453
 H   -2.11086276   -0.05441290   +2.19387238
22
 * E =  +1.253 kcal/mol ; (12) 104_297_298_267_178
 C   +0.00000000   +0.00000000   +0.00000000
 C   +0.00000000   +0.00000000   +1.31328715
 C   +1.07926919   +0.00000000   +2.32055983
 C   +1.27605580   +1.36331058   +2.97597917
 C   +1.70014808   +2.45733930   +1.99904602
 C   +3.02174759   +2.14599936   +1.37403627
 O   +4.03660306   +2.69582382   +2.03765368
 C   +5.32620838   +2.40527060   +1.52803360
 O   +3.18130920   +1.45010595   +0.40507203
 H   +6.02311710   +2.92983840   +2.16853064
 H   -0.91946695   +0.01250757   -0.56766078
 H   +5.41398478   +2.75061815   +0.50279052
 H   +5.51261581   +1.33616356   +1.55469722
 H   +0.97056111   +2.53338963   +1.19762217
 H   +1.76316420   +3.40910063   +2.51772746
 H   +2.01623414   +1.27609799   +3.77004455
 H   +0.34519208   +1.67493716   +3.44714685
 H   +2.00374190   -0.32259208   +1.83759552
 H   +0.85339037   -0.73193837   +3.09600138
 H   -1.28874675   +0.02631309   +1.89574373
 H   +0.93396633   -0.00463868   -0.55145433
 H   -2.09560276   +0.02673386   +2.24278783
22
 * E =  +1.488 kcal/mol ; (13) 118_293_069_043_184
 C   +0.00000000   +0.00000000   +0.00000000
 C   +0.00000000   +0.00000000   +1.31272719
 C   +1.06485011   +0.00000000   +2.33470493
 C   +1.05718914   +1.22508721   +3.24275318
 C   +1.40181950   +2.52299504   +2.53132046
 C   +0.37441204   +3.00391722   +1.55046911
 O   -0.86082175   +2.87605072   +2.02843117
 C   -1.89721242   +3.22722726   +1.13198546
 O   +0.61580835   +3.48273109   +0.47594291
 H   -2.82253435   +3.07743280   +1.67296311
 H   -0.91953481   -0.00118291   -0.56780752
 H   -1.85974318   +2.58366212   +0.25700045
 H   -1.79651566   +4.26080368   +0.81650873
 H   +1.51881669   +3.31708996   +3.26918763
 H   +2.34218891   +2.44685567   +1.99229548
 H   +1.78531051   +1.06618725   +4.03588725
 H   +0.08317393   +1.32029107   +3.71844900
 H   +2.03265872   -0.08291031   +1.83088793
 H   +0.95767015   -0.89206577   +2.95268574
 H   -1.29981435   +0.03242554   +1.87450211
 H   +0.92599029   +0.00803426   -0.56435027
 H   -2.11855586   +0.05943066   +2.18547536
22
 * E =  +1.540 kcal/mol ; (14) 119_180_299_320_182
 C   +0.00000000   +0.00000000   +0.00000000
 C   +0.00000000   +0.00000000   +1.31279090
 C   +1.06329923   +0.00000000   +2.33349889
 C   +1.01773612   +1.23117017   +3.22792227
 C   +2.11812101   +1.22858310   +4.27356610
 C   +2.06189500   +0.07792188   +5.23312921
 O   +0.81445683   -0.20602240   +5.60334260
 C   +0.68310533   -1.25985410   +6.54136595
 O   +3.01652840   -0.51782247   +5.65316456
 H   -0.37834817   -1.36236684   +6.72536739
 H   -0.91916983   +0.00565200   -0.56765165
 H   +1.20954920   -1.01662950   +7.45892629
 H   +1.09226037   -2.18008183   +6.13634934
 H   +3.10511658   +1.20928416   +3.81997875
 H   +2.05902960   +2.13775116   +4.87220230
 H   +0.04842025   +1.28488830   +3.71847907
 H   +1.11624015   +2.12476288   +2.61456945
 H   +2.03458347   -0.06661145   +1.83477808
 H   +0.96452989   -0.89506172   +2.95096857
 H   -1.29615338   +0.00583840   +1.88141519
 H   +0.92708736   -0.00936170   -0.56320636
 H   -2.10966949   +0.00003975   +2.20954898
22
 * E =  +1.547 kcal/mol ; (15) 119_297_180_314_181
 C   +0.00000000   +0.00000000   +0.00000000
 C   +0.00000000   +0.00000000   +1.31309460
 C   +1.06232825   +0.00000000   +2.33649612
 C   +1.01436368   +1.22079783   +3.24741138
 C   +1.25568800   +2.51278774   +2.48752254
 C   +1.22517638   +3.73855530   +3.34467402
 O   +0.18349504   +3.74343013   +4.17511479
 C   +0.06902079   +4.89022243   +4.99859273
 O   +2.02201468   +4.63650289   +3.29820011
 H   -0.81323358   +4.73287551   +5.60534003
 H   -0.91910033   -0.00297333   -0.56791699
 H   -0.03894162   +5.78310012   +4.39074550
 H   +0.94996881   +4.99680039   +5.62371282
 H   +2.21797178   +2.50365022   +1.98336469
 H   +0.48983123   +2.63201695   +1.72006145
 H   +1.76661100   +1.10645022   +4.02649735
 H   +0.04879466   +1.26883185   +3.74597090
 H   +2.03393269   -0.05903124   +1.83711727
 H   +0.96859498   -0.89901405   +2.94614530
 H   -1.29337109   -0.00577059   +1.88375787
 H   +0.92746177   -0.00240544   -0.56281280
 H   -2.10625326   -0.02404108   +2.21667127
22
 * E =  +1.556 kcal/mol ; (16) 242_183_299_320_182
 C   +0.00000000   +0.00000000   +0.00000000
 C   +0.00000000   +0.00000000   +1.31263698
 C   +1.06125112   +0.00000000   +2.33551999
 C   +1.02625036   -1.24199773   +3.21538617
 C   +2.06859487   -1.20081214   +4.31788927
 C   +3.48618309   -1.13633380   +3.83417892
 O   +3.69161193   -1.91554008   +2.77311772
 C   +5.02166815   -1.93864331   +2.28546824
 O   +4.35977917   -0.48697457   +4.34173960
 H   +5.01309873   -2.60334304   +1.43147556
 H   -0.91900491   -0.00538116   -0.56787835
 H   +5.69834434   -2.30681082   +3.05017780
 H   +5.33477624   -0.94149454   +1.99219008
 H   +1.92411527   -0.34884782   +4.97639868
 H   +1.98985267   -2.09733382   +4.93316585
 H   +1.17772421   -2.12431699   +2.59833407
 H   +0.04095467   -1.33382739   +3.66936669
 H   +0.95821528   +0.88867682   +2.96124519
 H   +2.03179047   +0.07587119   +1.83660870
 H   -1.29403972   -0.00419643   +1.88325573
 H   +0.92740512   +0.00803926   -0.56259893
 H   -2.10558637   +0.00356235   +2.21879459
22
 * E =  +1.784 kcal/mol ; (17) 120_297_181_043_179
 C   +0.00000000   +0.00000000   +0.00000000
 C   +0.00000000   +0.00000000   +1.31284530
 C   +1.06125106   +0.00000000   +2.33752747
 C   +1.00554813   +1.20707852   +3.26571781
 C   +1.22653197   +2.51349853   +2.52525762
 C   +1.20286626   +3.72794695   +3.40040360
 O   +1.88159027   +3.54525233   +4.53300543
 C   +1.92856414   +4.66541404   +5.39889469
 O   +0.66378418   +4.76617434   +3.12896703
 H   +2.49975887   +4.34950663   +6.26219902
 H   -0.91901878   -0.00301328   -0.56792637
 H   +0.92556922   +4.96055786   +5.69038532
 H   +2.41114482   +5.50417772   +4.90695508
 H   +2.20189022   +2.49440921   +2.03507513
 H   +0.48237247   +2.66372795   +1.74945659
 H   +1.75833418   +1.09733529   +4.04187414
 H   +0.03776549   +1.22905554   +3.76624499
 H   +2.03419299   -0.04255232   +1.83845928
 H   +0.97679406   -0.90789382   +2.93534587
 H   -1.29282394   -0.00731920   +1.88476553
 H   +0.92739077   -0.00011018   -0.56300346
 H   -2.10463094   -0.02608663   +2.22053799
22
 * E =  +1.787 kcal/mol ; (18) 000_180_180_047_179
 C   +0.00000000   +0.00000000   +0.00000000
 C   +0.00000000   +0.00000000   +1.31308253
 C   +1.06144737   +0.00000000   +2.33811997
 C   +2.46542882   +0.00285001   +1.75500278
 C   +3.52279930   +0.00471089   +2.84537000
 C   +4.92741569   +0.00184501   +2.32587296
 O   +5.10648423   +0.90893235   +1.36727326
 C   +6.42020139   +0.98633036   +0.84192011
 O   +5.81012033   -0.71038219   +2.72050589
 H   +6.39154478   +1.75865604   +0.08440018
 H   -0.92170399   -0.00096619   -0.56347483
 H   +6.71057271   +0.03479404   +0.40796915
 H   +7.12601161   +1.24437919   +1.62517455
 H   +3.41003917   +0.89617081   +3.46410780
 H   +3.42641895   -0.85847320   +3.49719436
 H   +2.59876079   +0.87466926   +1.11859512
 H   +2.59324976   -0.87435975   +1.12119551
 H   +0.92748948   -0.86994143   +2.98402097
 H   +0.92762049   +0.87064261   +2.98356604
 H   -1.29616095   -0.00159802   +1.87767672
 H   +0.92309297   +0.00162514   -0.56917476
 H   -2.10930475   -0.00225324   +2.20404484
22
 * E =  +1.840 kcal/mol ; (19) 118_179_180_051_179
 C   +0.00000000   +0.00000000   +0.00000000
 C   +0.00000000   +0.00000000   +1.31269192
 C   +1.06425277   +0.00000000   +2.33288486
 C   +1.03121629   +1.23974778   +3.21479353
 C   +2.11587866   +1.19782247   +4.27773345
 C   +2.12805466   +2.40140388   +5.16802333
 O   +0.92211920   +2.65913627   +5.67062452
 C   +0.85114261   +3.77638308   +6.53890360
 O   +3.09567145   +3.06491198   +5.42507731
 H   -0.18352998   +3.84617138   +6.84825781
 H   -0.91908431   +0.00687127   -0.56773843
 H   +1.15709362   +4.67895240   +6.01943221
 H   +1.49850002   +3.62964849   +7.39782542
 H   +1.97041678   +0.32331617   +4.91341116
 H   +3.10469710   +1.12200699   +3.83527123
 H   +0.05794127   +1.32597742   +3.69260127
 H   +1.15618425   +2.12491342   +2.59254370
 H   +2.03386407   -0.08099572   +1.83325647
 H   +0.96090883   -0.88833614   +2.95932732
 H   -1.29506937   +0.00712608   +1.88411268
 H   +0.92710299   -0.00931673   -0.56321245
 H   -2.10618348   +0.00200536   +2.21792832
22
 * E =  +1.884 kcal/mol ; (20) 118_178_180_310_181
 C   +0.00000000   +0.00000000   +0.00000000
 C   +0.00000000   +0.00000000   +1.31265788
 C   +1.06352241   +0.00000000   +2.33357654
 C   +1.02355531   +1.23491708   +3.22207916
 C   +2.09953311   +1.18659704   +4.29336556
 C   +2.10271442   +2.37991618   +5.19754682
 O   +2.09052248   +3.52264403   +4.51362287
 C   +2.10995903   +4.70107325   +5.29989250
 O   +2.12756334   +2.34038171   +6.39766498
 H   +2.08898977   +5.52548856   +4.59914525
 H   -0.91909290   +0.00511143   -0.56772215
 H   +3.00979409   +4.73658579   +5.90601188
 H   +1.24486802   +4.73299016   +5.95459738
 H   +1.99124015   +0.31094651   +4.92650185
 H   +3.08247841   +1.13322419   +3.82304841
 H   +0.04232382   +1.30821131   +3.69015763
 H   +1.14987741   +2.12807724   +2.61533114
 H   +2.03433442   -0.06967894   +1.83400151
 H   +0.96625077   -0.89397482   +2.95252636
 H   -1.29486906   +0.00383839   +1.88351601
 H   +0.92711201   -0.00745540   -0.56323284
 H   -2.10626648   -0.00330457   +2.21735420
22
 * E =  +2.143 kcal/mol ; (21) 254_300_185_312_181
 C   +0.00000000   +0.00000000   +0.00000000
 C   +0.00000000   +0.00000000   +1.31339498
 C   +1.07651560   +0.00000000   +2.32445733
 C   +1.26825431   -1.34342734   +3.01902542
 C   +0.02565444   -1.80412329   +3.76249349
 C   +0.22981680   -3.06360848   +4.54394326
 O   +0.83785562   -4.00488136   +3.82281830
 C   +1.04378059   -5.23917926   +4.48641805
 O   -0.11486389   -3.23902717   +5.68116347
 H   +1.54085676   -5.88137540   +3.77100121
 H   -0.91874108   -0.00249933   -0.56823117
 H   +0.09420967   -5.66832406   +4.79052153
 H   +1.66183162   -5.09712948   +5.36737205
 H   -0.32496250   -1.04996395   +4.46137877
 H   -0.78139001   -1.99007272   +3.05358345
 H   +2.09874323   -1.25355959   +3.71841081
 H   +1.54999738   -2.09654289   +2.28720421
 H   +0.86840546   +0.76785407   +3.07139193
 H   +2.01007564   +0.28640486   +1.83479874
 H   -1.29781105   +0.04568746   +1.85591025
 H   +0.92765618   +0.00568198   -0.56234196
 H   -2.12102942   +0.09622753   +2.16329524
22
 * E =  +2.143 kcal/mol ; (22) 253_300_299_330_182
 C   +0.00000000   +0.00000000   +0.00000000
 C   +0.00000000   +0.00000000   +1.31369676
 C   +1.07859953   +0.00000000   +2.32244939
 C   +1.25028327   -1.33248326   +3.04470464
 C   +0.01849232   -1.79183032   +3.80269380
 C   -0.44442916   -0.88064385   +4.90009443
 O   +0.55959222   -0.20788261   +5.46405410
 C   +0.19229706   +0.63270958   +6.54393686
 O   -1.58108027   -0.77942995   +5.27269854
 H   +1.10789705   +1.10208562   +6.87973965
 H   -0.91933533   +0.00107174   -0.56742256
 H   -0.25372286   +0.04864302   +7.34277283
 H   -0.52357554   +1.37955889   +6.21534508
 H   -0.83183883   -1.94503154   +3.14461747
 H   +0.21940630   -2.75361932   +4.27592470
 H   +2.08669112   -1.24599517   +3.73439285
 H   +1.50863491   -2.09913763   +2.31633774
 H   +0.88997983   +0.78262478   +3.05844558
 H   +2.01681059   +0.26006586   +1.82682029
 H   -1.29630572   +0.05334048   +1.85270290
 H   +0.92712894   +0.00321190   -0.56344362
 H   -2.12060992   +0.10913221   +2.16062638
22
 * E =  +2.254 kcal/mol ; (23) 113_061_273_164_179
 C   +0.00000000   +0.00000000   +0.00000000
 C   +0.00000000   +0.00000000   +1.31225486
 C   +1.07358512   +0.00000000   +2.32502640
 C   +1.16796824   +1.26773076   +3.16812821
 C   -0.07508551   +1.56431997   +3.98599750
 C   -1.10522853   +2.35863696   +3.23998645
 O   -2.28874893   +2.31008473   +3.84515804
 C   -3.32084314   +3.04807576   +3.21606379
 O   -0.90506062   +2.99634135   +2.24261276
 H   -4.20210920   +2.90598259   +3.82797427
 H   -0.91835576   -0.00729419   -0.56832665
 H   -3.48967670   +2.67472485   +2.21072457
 H   -3.05764067   +4.09984421   +3.16186058
 H   -0.54570352   +0.65883033   +4.36582850
 H   +0.17869212   +2.15966444   +4.86344041
 H   +1.37305308   +2.12006576   +2.52420361
 H   +2.01595164   +1.15537552   +3.84047229
 H   +2.02504138   -0.15739560   +1.81093964
 H   +0.93452163   -0.85673322   +2.98776805
 H   -1.29973524   -0.07975039   +1.85018624
 H   +0.92792436   +0.01841071   -0.56124160
 H   -2.12544944   -0.16382224   +2.14678666
22
 * E =  +2.270 kcal/mol ; (24) 254_300_185_052_179
 C   +0.00000000   +0.00000000   +0.00000000
 C   +0.00000000   +0.00000000   +1.31328357
 C   +1.07712643   +0.00000000   +2.32367312
 C   +1.26715317   -1.33829829   +3.02825654
 C   +0.02465025   -1.79655577   +3.77437329
 C   +0.23582615   -3.05139485   +4.56317846
 O   +1.30279687   -2.96745951   +5.35836724
 C   +1.55656909   -4.11097568   +6.15476083
 O   -0.46236730   -4.02733178   +4.51749407
 H   +2.44487431   -3.88187740   +6.72903495
 H   -0.91866881   -0.00423249   -0.56826270
 H   +1.72055825   -4.98091412   +5.52664727
 H   +0.71596755   -4.30800062   +6.81275411
 H   -0.28895200   -1.02008599   +4.47397562
 H   -0.80332543   -1.98254225   +3.09855718
 H   +2.09406602   -1.25195683   +3.72914638
 H   +1.54643335   -2.09156783   +2.29259423
 H   +0.87265521   +0.77171458   +3.06796359
 H   +2.01131968   +0.28119523   +1.83209418
 H   -1.29767966   +0.04535599   +1.85854880
 H   +0.92767499   +0.00614643   -0.56239151
 H   -2.11904044   +0.09734883   +2.16879003
22
 * E =  +3.294 kcal/mol ; (25) 258_307_078_039_180
 C   +0.00000000   +0.00000000   +0.00000000
 C   +0.00000000   +0.00000000   +1.31352781
 C   +1.07061542   +0.00000000   +2.33182764
 C   +1.32649480   -1.35951985   +2.97729402
 C   +0.08291193   -2.01621844   +3.55501902
 C   -0.82364529   -2.67557651   +2.55698822
 O   -0.14647617   -3.30791769   +1.60106660
 C   -0.94129528   -3.95072881   +0.62273483
 O   -2.02263061   -2.68942742   +2.62319073
 H   -0.24762262   -4.41909103   -0.06356065
 H   -0.92048017   +0.01570974   -0.56574747
 H   -1.55753315   -3.22226714   +0.10433770
 H   -1.58594444   -4.69288870   +1.08315878
 H   +0.37873405   -2.80307392   +4.24952341
 H   -0.52653208   -1.31244398   +4.11643120
 H   +2.05277594   -1.22037113   +3.77589687
 H   +1.77657938   -2.03093955   +2.25049660
 H   +0.80912998   +0.71929292   +3.10987621
 H   +1.99568401   +0.35842559   +1.87524243
 H   -1.28172747   +0.11121137   +1.87437603
 H   +0.92614361   -0.01295165   -0.56496453
 H   -2.08317243   +0.23686649   +2.21740692
22
 * E =  +7.631 kcal/mol ; (26) 121_301_292_173_358
 C   +0.00000000   +0.00000000   +0.00000000
 C   +0.00000000   +0.00000000   +1.31387524
 C   +1.06534936   +0.00000000   +2.33390467
 C   +1.00250728   +1.20748085   +3.26331084
 C   +1.10496526   +2.53092974   +2.53498024
 C   +2.46845237   +2.75387905   +1.93882437
 O   +2.63715728   +3.81848299   +1.14682994
 C   +1.56412133   +4.67810652   +0.83669819
 O   +3.40630053   +2.04081631   +2.15378323
 H   +1.99314879   +5.48556657   +0.25665738
 H   -0.91904776   -0.00568722   -0.56842206
 H   +1.10510952   +5.09010774   +1.73207526
 H   +0.81040884   +4.17232298   +0.23769368
 H   +0.34937128   +2.59419339   +1.75249474
 H   +0.90321531   +3.35745197   +3.21798410
 H   +1.81010731   +1.13182823   +3.98686760
 H   +0.06348381   +1.18800338   +3.81432189
 H   +2.03804664   -0.03149021   +1.84008207
 H   +0.98483470   -0.90636266   +2.93429332
 H   -1.29242737   +0.00237471   +1.88067297
 H   +0.92870221   -0.00905014   -0.56063074
 H   -2.10941691   -0.00611406   +2.21168985
22
 * E =  +8.064 kcal/mol ; (27) 253_305_296_169_357
 C   +0.00000000   +0.00000000   +0.00000000
 C   +0.00000000   +0.00000000   +1.31339618
 C   +1.06120014   +0.00000000   +2.33894616
 C   +1.21411239   -1.33235795   +3.06761687
 C   -0.06488107   -1.83300324   +3.70797935
 C   -0.55183682   -0.92245574   +4.80342161
 O   -1.77939446   -1.12577105   +5.29064473
 C   -2.62774597   -2.11318152   +4.75013195
 O   +0.12120244   -0.05148686   +5.27587548
 H   -3.50167894   -2.13086538   +5.38927489
 H   -0.91768446   +0.00960185   -0.56993034
 H   -2.16132497   -3.09540599   +4.75949701
 H   -2.93284628   -1.85836127   +3.73774341
 H   -0.84189467   -1.97246626   +2.95907258
 H   +0.09997292   -2.81554431   +4.15402064
 H   +1.97632306   -1.21801610   +3.83450026
 H   +1.56158750   -2.08718323   +2.36441520
 H   +0.86041800   +0.78002601   +3.07165134
 H   +2.00817393   +0.25256653   +1.85684793
 H   -1.29182676   +0.05540892   +1.85650608
 H   +0.92868849   -0.00088577   -0.56057898
 H   -2.11296210   +0.10624180   +2.18472987
22
 * E =  +8.507 kcal/mol ; (28) 123_299_181_182_002
 C   +0.00000000   +0.00000000   +0.00000000
 C   +0.00000000   +0.00000000   +1.31340263
 C   +1.06282449   +0.00000000   +2.33695131
 C   +0.96995722   +1.17351426   +3.30305531
 C   +1.09742533   +2.50855630   +2.60499055
 C   +1.03699378   +3.65369854   +3.57664928
 O   +1.09284525   +4.89655014   +3.08116945
 C   +1.16988548   +5.12826195   +1.69382042
 O   +0.94943665   +3.50658377   +4.76073493
 H   +1.22640585   +6.20338755   +1.57805764
 H   -0.91912912   -0.00942450   -0.56790445
 H   +0.28570975   +4.76237340   +1.17701268
 H   +2.05938602   +4.67851177   +1.25880196
 H   +2.03923719   +2.56653774   +2.05532179
 H   +0.31390365   +2.62527443   +1.85593646
 H   +1.74503649   +1.08632295   +4.06001271
 H   +0.02272005   +1.13906134   +3.83732876
 H   +2.03456612   -0.00053561   +1.83332864
 H   +1.00684410   -0.92818430   +2.90598194
 H   -1.29392977   -0.00881697   +1.88053705
 H   +0.92737889   -0.00090438   -0.56321031
 H   -2.11021016   -0.02478156   +2.20708038
22
 * E =  +8.582 kcal/mol ; (29) 115_176_070_186_002
 C   +0.00000000   +0.00000000   +0.00000000
 C   +0.00000000   +0.00000000   +1.31264942
 C   +1.06608439   +0.00000000   +2.33103940
 C   +1.07223402   +1.27506234   +3.16325560
 C   +2.09841901   +1.24492736   +4.27656462
 C   +3.51171424   +1.30936022   +3.76118821
 O   +4.50558223   +1.16889593   +4.64608106
 C   +4.24700181   +0.93380335   +6.01108151
 O   +3.78550501   +1.49795930   +2.61152788
 H   +5.21357678   +0.94325186   +6.49899367
 H   -0.91897596   +0.00981638   -0.56801928
 H   +3.78195830   -0.03695478   +6.16736185
 H   +3.62412525   +1.71241412   +6.44464469
 H   +1.95413229   +2.09204057   +4.94880283
 H   +1.97452372   +0.35340887   +4.89229358
 H   +0.08628034   +1.42405371   +3.60061783
 H   +1.27130369   +2.12318709   +2.51270769
 H   +2.03146718   -0.11905972   +1.83678188
 H   +0.92896049   -0.86036780   +2.99035009
 H   -1.29264290   +0.01162328   +1.88841467
 H   +0.92840745   -0.00964555   -0.56049835
 H   -2.10108824   +0.00711848   +2.23263075
22
 * E =  +8.716 kcal/mol ; (30) 253_301_186_181_001
 C   +0.00000000   +0.00000000   +0.00000000
 C   +0.00000000   +0.00000000   +1.31317030
 C   +1.06981871   +0.00000000   +2.33129347
 C   +1.24372755   -1.33347398   +3.04794297
 C   -0.00907414   -1.78547623   +3.76502879
 C   +0.23371606   -3.02579559   +4.57918421
 O   -0.80510931   -3.54812669   +5.24254675
 C   -2.08802251   -2.97036996   +5.16495719
 O   +1.30175629   -3.55860837   +4.66317646
 H   -2.72014501   -3.57212689   +5.80584287
 H   -0.91815001   -0.00120910   -0.56915093
 H   -2.48060958   -3.00013453   +4.15127626
 H   -2.09084283   -1.94497679   +5.52691720
 H   -0.38148503   -0.99948934   +4.42519483
 H   -0.81519782   -1.97820334   +3.05727024
 H   +2.05558461   -1.25346164   +3.76661892
 H   +1.54301574   -2.09851581   +2.33513035
 H   +0.86538125   +0.78281644   +3.06422098
 H   +2.00906461   +0.27010300   +1.84372980
 H   -1.29762610   +0.04413463   +1.85531293
 H   +0.92826206   +0.00365080   -0.56111966
 H   -2.12105839   +0.09153577   +2.16693377
22
 * E =  +8.891 kcal/mol ; (31) 121_182_290_174_358
 C   +0.00000000   +0.00000000   +0.00000000
 C   +0.00000000   +0.00000000   +1.31302982
 C   +1.06399067   +0.00000000   +2.33281934
 C   +0.98372035   +1.20630360   +3.25839624
 C   +2.10259252   +1.23900402   +4.27849418
 C   +1.97002384   +0.15914033   +5.31941400
 O   +2.96717947   +0.01646910   +6.20062359
 C   +4.12036332   +0.82381016   +6.14325139
 O   +1.01565355   -0.55721605   +5.40690996
 H   +4.71068401   +0.55489376   +7.01022989
 H   -0.91941986   -0.00260055   -0.56729254
 H   +3.87629690   +1.88204922   +6.19577596
 H   +4.70147286   +0.62593438   +5.24530106
 H   +3.07400637   +1.15771288   +3.78965411
 H   +2.11211472   +2.19791178   +4.79880518
 H   +0.02742489   +1.19602645   +3.77657371
 H   +1.02298413   +2.11779890   +2.66483333
 H   +2.03414968   -0.01925156   +1.82555700
 H   +0.99096951   -0.90748803   +2.93118002
 H   -1.29882061   -0.00237350   +1.87484013
 H   +0.92682806   -0.00304935   -0.56394683
 H   -2.11710375   -0.00958808   +2.18951405
22
 * E =  +8.898 kcal/mol ; (32) 000_180_180_180_000
 C   +0.00000000   +0.00000000   +0.00000000
 C   +0.00000000   +0.00000000   +1.31288346
 C   +1.06174381   +0.00000000   +2.33806949
 C   +2.46447788   -0.00000067   +1.75317114
 C   +3.52422406   -0.00001851   +2.83189092
 C   +4.91167682   -0.00001575   +2.25001992
 O   +5.94554653   -0.00004631   +3.10061616
 C   +5.74700297   -0.00007554   +4.49513448
 O   +5.12840896   +0.00001212   +1.07390107
 H   +6.73717288   -0.00009684   +4.93320057
 H   -0.92202706   -0.00000033   -0.56298576
 H   +5.21458317   -0.88911782   +4.82522080
 H   +5.21460391   +0.88896444   +4.82526076
 H   +3.41475223   +0.86989038   +3.48152971
 H   +3.41474494   -0.86994439   +3.48150585
 H   +2.60317127   +0.86923349   +1.11402145
 H   +2.60316170   -0.86922308   +1.11400328
 H   +0.92482410   -0.87035629   +2.98362731
 H   +0.92482499   +0.87035579   +2.98362810
 H   -1.29589713   -0.00000049   +1.88120735
 H   +0.92323892   +0.00000054   -0.56893775
 H   -2.10639661   -0.00000093   +2.21297799
22
 * E =  +9.026 kcal/mol ; (33) 347_290_178_178_000
 C   +0.00000000   +0.00000000   +0.00000000
 C   +0.00000000   +0.00000000   +1.31362635
 C   +1.05786455   +0.00000000   +2.34621414
 C   +2.45016087   -0.32090362   +1.81926998
 C   +2.58868786   -1.76337426   +1.38290352
 C   +3.95566351   -2.05009302   +0.82783586
 O   +4.22109126   -3.30375289   +0.43993360
 C   +3.25700569   -4.32460983   +0.55483619
 O   +4.80673483   -1.21665759   +0.71519194
 H   +3.72111882   -5.21432233   +0.14812983
 H   -0.92130835   +0.02746521   -0.56356537
 H   +2.36093049   -4.09906369   -0.01840732
 H   +2.98996435   -4.50848392   +1.59301844
 H   +2.39834819   -2.43494616   +2.22152367
 H   +1.84080151   -2.01487531   +0.63051089
 H   +3.18519110   -0.11289259   +2.59338193
 H   +2.70210360   +0.33584560   +0.98947312
 H   +0.78547193   -0.70432474   +3.13489853
 H   +1.06601075   +0.98142707   +2.82196120
 H   -1.29418521   +0.03542577   +1.87061401
 H   +0.92255473   -0.01562765   -0.57135721
 H   -2.11017094   +0.05301780   +2.19535209
22
 * E =  +9.241 kcal/mol ; (34) 118_178_180_179_000
 C   +0.00000000   +0.00000000   +0.00000000
 C   +0.00000000   +0.00000000   +1.31252678
 C   +1.06436752   +0.00000000   +2.33285293
 C   +1.03167991   +1.24042301   +3.21332340
 C   +2.09481410   +1.19391804   +4.28779973
 C   +2.07137929   +2.42382415   +5.15352181
 O   +2.95570840   +2.49827798   +6.15671576
 C   +3.87296118   +1.45888743   +6.40519905
 O   +1.30830902   +3.32900248   +4.98621487
 H   +4.46272195   +1.78359195   +7.25325570
 H   -0.91911128   +0.00731724   -0.56759109
 H   +4.53435433   +1.29408131   +5.55768223
 H   +3.36808929   +0.53015664   +6.66119775
 H   +1.96572645   +0.31362731   +4.91962910
 H   +3.08759383   +1.09615188   +3.84484293
 H   +0.05364141   +1.34121078   +3.67878315
 H   +1.16684340   +2.13207899   +2.60613777
 H   +2.03341386   -0.08288653   +1.83125231
 H   +0.95948806   -0.89106494   +2.95569373
 H   -1.29471436   +0.00349004   +1.88549063
 H   +0.92697484   -0.00687474   -0.56357400
 H   -2.10435967   -0.00558574   +2.22146829
22
 * E =  +9.757 kcal/mol ; (35) 258_064_062_090_006
 C   +0.00000000   +0.00000000   +0.00000000
 C   +0.00000000   +0.00000000   +1.31332374
 C   +1.07872263   +0.00000000   +2.32147592
 C   +1.30396226   -1.37602726   +2.94092943
 C   +1.77884663   -2.42346315   +1.93352570
 C   +3.10476287   -2.04095180   +1.33912424
 O   +4.22992661   -2.44157210   +1.94391687
 C   +4.20533944   -3.32207833   +3.04396239
 O   +3.19437437   -1.34079638   +0.37032569
 H   +5.23160209   -3.39882778   +3.38123503
 H   -0.92008622   -0.01481348   -0.56665386
 H   +3.85461877   -4.30929966   +2.75200200
 H   +3.59313640   -2.93998929   +3.85698114
 H   +1.80928345   -3.40243338   +2.40275300
 H   +1.07663901   -2.46594960   +1.10629417
 H   +0.37403948   -1.72984108   +3.38331569
 H   +2.02146245   -1.28057611   +3.75571575
 H   +0.83374382   +0.70391255   +3.11662665
 H   +1.99696737   +0.35654641   +1.85157276
 H   -1.28744646   -0.03328576   +1.89701687
 H   +0.93377733   +0.01102586   -0.55167650
 H   -2.09264901   -0.03921077   +2.24840553
22
 * E = +10.516 kcal/mol ; (36) 241_183_298_273_352
 C   +0.00000000   +0.00000000   +0.00000000
 C   +0.00000000   +0.00000000   +1.31273742
 C   +1.06400232   +0.00000000   +2.33327974
 C   +0.99972112   -1.23333013   +3.22392247
 C   +2.04747710   -1.22419316   +4.33612160
 C   +3.44184110   -1.22384385   +3.77279377
 O   +4.02394712   -2.39490878   +3.48634725
 C   +3.43421027   -3.62385610   +3.84516385
 O   +4.03015179   -0.21227012   +3.51814741
 H   +4.07189324   -4.38969558   +3.42133651
 H   -0.91918597   -0.00220863   -0.56769449
 H   +2.43322456   -3.73062323   +3.43537446
 H   +3.40533625   -3.74687180   +4.92543719
 H   +1.95441553   -0.30988864   +4.91481447
 H   +1.88267611   -2.06309453   +5.00644713
 H   +1.10366114   -2.12478471   +2.60582595
 H   +0.01497713   -1.29178916   +3.68463028
 H   +0.97347347   +0.89271879   +2.95432787
 H   +2.03662820   +0.06953700   +1.84216567
 H   -1.29372584   -0.00280287   +1.88522364
 H   +0.92765195   +0.00890121   -0.56205300
 H   -2.10392321   +0.00362715   +2.22552521
22
 * E = +10.571 kcal/mol ; (37) 256_297_182_270_353
 C   +0.00000000   +0.00000000   +0.00000000
 C   +0.00000000   +0.00000000   +1.31369120
 C   +1.07876330   +0.00000000   +2.32299786
 C   +1.28530781   -1.35187238   +2.99494846
 C   +0.06455862   -1.81799698   +3.78117087
 C   +0.36101308   -3.12520763   +4.46229020
 O   +0.09999274   -4.26431084   +3.80901253
 C   -0.56853771   -4.26752959   +2.56755934
 O   +0.87190263   -3.18323173   +5.54312055
 H   -0.54815065   -5.29524158   +2.22655917
 H   -0.91883224   -0.00323450   -0.56818015
 H   -0.06949423   -3.63979854   +1.83334347
 H   -1.60331776   -3.95112458   +2.67660477
 H   -0.15504697   -1.10353858   +4.56923979
 H   -0.80568694   -1.88084156   +3.13433936
 H   +2.13151161   -1.28651184   +3.67591146
 H   +1.54774897   -2.08749033   +2.23472523
 H   +0.86646041   +0.75284821   +3.08340990
 H   +2.00814784   +0.30209848   +1.83514339
 H   -1.29936026   +0.04136838   +1.85214438
 H   +0.92742865   +0.01207828   -0.56261045
 H   -2.12566565   +0.08825501   +2.15233423
22
 * E = +10.593 kcal/mol ; (38) 240_180_062_087_008
 C   +0.00000000   +0.00000000   +0.00000000
 C   +0.00000000   +0.00000000   +1.31261855
 C   +1.05929435   +0.00000000   +2.33749804
 C   +0.98092952   -1.22661185   +3.23623767
 C   +2.07140873   -1.25856253   +4.30623938
 C   +1.96640028   -0.08042414   +5.23508613
 O   +1.16609401   -0.16887603   +6.30422693
 C   +0.54654630   -1.38136304   +6.66869322
 O   +2.53149550   +0.95412828   +5.02368884
 H   -0.10024714   -1.14076771   +7.50324817
 H   -0.91909783   +0.00130378   -0.56774593
 H   +1.27988602   -2.11715688   +6.99098469
 H   -0.05537881   -1.79025777   +5.86144482
 H   +2.03176176   -2.20138350   +4.84475167
 H   +3.04645176   -1.18404420   +3.83384355
 H   +1.07341100   -2.12360018   +2.62682414
 H   -0.00639380   -1.26803267   +3.69639807
 H   +0.98624651   +0.90545298   +2.93988504
 H   +2.03515224   +0.03942337   +1.84613304
 H   -1.29388536   -0.00155950   +1.88178016
 H   +0.92729537   +0.00634318   -0.56277941
 H   -2.10571923   +0.00325301   +2.21873464
22
 * E = +10.834 kcal/mol ; (39) 359_182_298_273_352
 C   +0.00000000   +0.00000000   +0.00000000
 C   +0.00000000   +0.00000000   +1.31353378
 C   +1.05639170   +0.00000000   +2.34309859
 C   +2.45874952   -0.02036665   +1.75463599
 C   +3.55406011   -0.07117372   +2.81929359
 C   +3.52190644   +1.14781517   +3.69985377
 O   +4.19928151   +2.23823473   +3.32027867
 C   +5.06495346   +2.22444631   +2.20822839
 O   +2.86794711   +1.19675089   +4.70169816
 H   +5.40018451   +3.24677230   +2.08487299
 H   -0.92209564   +0.00383786   -0.56285151
 H   +4.55785496   +1.90689288   +1.30080699
 H   +5.92901469   +1.58904031   +2.38908091
 H   +3.38511284   -0.92111173   +3.47378114
 H   +4.52327625   -0.20175353   +2.34582183
 H   +2.59080731   +0.85156708   +1.11352658
 H   +2.56719531   -0.89456587   +1.11448934
 H   +0.91963387   -0.86486898   +2.99457735
 H   +0.92821510   +0.86774827   +2.99038421
 H   -1.29843926   +0.00499992   +1.87141072
 H   +0.92109664   -0.00383253   -0.57276207
 H   -2.11510178   +0.00754170   +2.18756426
22
 * E = +10.914 kcal/mol ; (40) 242_181_177_090_006
 C   +0.00000000   +0.00000000   +0.00000000
 C   +0.00000000   +0.00000000   +1.31273396
 C   +1.06782157   +0.00000000   +2.32943629
 C   +1.03104758   -1.23611230   +3.21614136
 C   +2.12051288   -1.19697255   +4.28178135
 C   +2.01792292   -2.39258645   +5.18915772
 O   +2.68223972   -3.50942379   +4.86572225
 C   +3.56494738   -3.55480998   +3.76874162
 O   +1.32471597   -2.39589513   +6.16416503
 H   +3.87297892   -4.58946378   +3.68224194
 H   -0.91923836   -0.00592140   -0.56740059
 H   +4.44403661   -2.93832594   +3.94286532
 H   +3.08009522   -3.25266063   +2.84366659
 H   +3.10066382   -1.11581291   +3.81749545
 H   +1.97694045   -0.32585079   +4.91416484
 H   +1.13089372   -2.12590000   +2.59511672
 H   +0.06190978   -1.30725446   +3.70640253
 H   +0.97121754   +0.88954582   +2.95448176
 H   +2.03667579   +0.07409363   +1.82657745
 H   -1.29509698   -0.00514272   +1.88567303
 H   +0.92670691   +0.01072150   -0.56402658
 H   -2.10532914   +0.00130443   +2.21927719
22
 * E = +11.208 kcal/mol ; (41) 254_302_183_090_006
 C   +0.00000000   +0.00000000   +0.00000000
 C   +0.00000000   +0.00000000   +1.31289532
 C   +1.07500765   +0.00000000   +2.32533548
 C   +1.26369257   -1.34246173   +3.02190718
 C   -0.00092527   -1.83601292   +3.71804725
 C   +0.28102578   -3.11981301   +4.44798685
 O   +0.69105294   -3.06199849   +5.72283917
 C   +0.74246724   -1.84418851   +6.42847013
 O   +0.20492871   -4.18906682   +3.91686932
 H   +1.19366017   -2.07757500   +7.38502318
 H   -0.91866776   -0.00435167   -0.56815154
 H   -0.25367486   -1.44119644   +6.59672831
 H   +1.35667987   -1.10479767   +5.91969355
 H   -0.39834417   -1.06478045   +4.37403820
 H   -0.76030295   -2.06506326   +2.97746771
 H   +2.07747985   -1.24679745   +3.74099916
 H   +1.57290002   -2.09192288   +2.29638695
 H   +0.86462584   +0.76861609   +3.07128886
 H   +2.01096575   +0.28495552   +1.83960599
 H   -1.29601261   +0.04409103   +1.86484198
 H   +0.92755700   +0.00413309   -0.56241336
 H   -2.11291442   +0.09489488   +2.18571792
22
 * E = +11.359 kcal/mol ; (42) 110_066_063_090_006
 C   +0.00000000   +0.00000000   +0.00000000
 C   +0.00000000   +0.00000000   +1.31391513
 C   +1.08898370   +0.00000000   +2.31134950
 C   +1.21208878   +1.31040869   +3.08196884
 C   +0.01303101   +1.62420048   +3.97826493
 C   -0.13542860   +0.58436743   +5.05319943
 O   +0.49075222   +0.76732572   +6.22392304
 C   +1.17084602   +1.96442932   +6.52223140
 O   -0.74444307   -0.43226698   +4.88252482
 H   +1.64551492   +1.80082366   +7.48189535
 H   -0.91972691   -0.00920274   -0.56672951
 H   +0.48124809   +2.80116114   +6.60796254
 H   +1.93597168   +2.19276475   +5.78414161
 H   +0.11519009   +2.62373131   +4.39029951
 H   -0.90108011   +1.59678151   +3.39371659
 H   +1.33108142   +2.12903213   +2.37469434
 H   +2.12285100   +1.27678775   +3.68028868
 H   +2.03062515   -0.18875470   +1.78975264
 H   +0.93866276   -0.82517815   +3.00697636
 H   -1.31382785   -0.06282228   +1.83692656
 H   +0.92671911   +0.00129123   -0.56417354
 H   -2.14852400   -0.11847771   +2.09036128
