22
 * E =  +0.000 kcal/mol ; (1) 240_054_071_181_180
 C   +0.00000000   +0.00000000   +0.00000000
 C   +0.00000000   +0.00000000   +1.32475192
 C   +1.22469800   +0.00000000   +2.17698468
 C   +1.31521878   -1.19674217   +3.08630093
 C   +1.20879721   -2.55083406   +2.45572828
 C   +2.42277954   -2.91110480   +1.64943429
 O   +2.29370096   -4.10735818   +1.08358511
 C   +3.39698942   -4.53295726   +0.30264489
 O   +3.40237627   -2.22748278   +1.51798532
 H   +3.13137378   -5.51124844   -0.07604556
 H   -0.91917371   +0.00475394   -0.56550378
 H   +4.29327206   -4.58903725   +0.91232422
 H   +3.57084603   -3.84085521   -0.51524263
 H   +1.07292175   -3.32866523   +3.20638437
 H   +0.34621049   -2.61220338   +1.79307384
 H   +0.23208241   -1.11697462   +3.88463716
 H   +2.11984089   -1.12185493   +3.81080070
 H   +1.23912162   +0.90159175   +2.79115571
 H   +2.11723025   +0.03024113   +1.54918367
 H   -0.94694551   -0.00534481   +1.85320848
 H   +0.92395581   +0.00430374   -0.56144519
 H   -0.52428606   -1.06312491   +4.41530169
22
 * E =  +0.071 kcal/mol ; (2) 115_289_173_164_178
 C   +0.00000000   +0.00000000   +0.00000000
 C   +0.00000000   +0.00000000   +1.32515255
 C   +1.22510663   +0.00000000   +2.18041518
 C   +1.33994110   +1.27330419   +2.97699337
 C   +1.67562977   +2.50563204   +2.19815333
 C   +1.59974523   +3.75319758   +3.02261195
 O   +2.22133268   +4.76896793   +2.43048625
 C   +2.16494065   +6.00278549   +3.12517703
 O   +1.03552491   +3.85557571   +4.07773916
 H   +2.71268831   +6.71030970   +2.51656134
 H   -0.91936145   +0.01318417   -0.56484588
 H   +2.62222218   +5.90573574   +4.10471734
 H   +1.13451430   +6.32118588   +3.24838231
 H   +2.66423054   +2.44137522   +1.74560786
 H   +0.97792978   +2.62982101   +1.36460082
 H   +2.38392804   +1.07812867   +3.78260437
 H   +0.54419928   +1.43084962   +3.69837452
 H   +2.10866054   -0.13211521   +1.55576302
 H   +1.18962447   -0.84469963   +2.86904064
 H   -0.94635464   +0.02387468   +1.85275569
 H   +0.92252390   -0.02367686   -0.56338757
 H   +3.15054602   +0.92589559   +4.28805071
22
 * E =  +0.206 kcal/mol ; (3) 116_298_087_200_182
 C   +0.00000000   +0.00000000   +0.00000000
 C   +0.00000000   +0.00000000   +1.32528071
 C   +1.23333655   +0.00000000   +2.16952421
 C   +1.34038684   +1.25508516   +2.99629419
 C   +1.44298566   +2.54588277   +2.24165455
 C   +0.09826056   +3.12081430   +1.89827312
 O   +0.17994861   +3.99386997   +0.90025376
 C   -1.04023802   +4.61626786   +0.53693793
 O   -0.92962732   +2.86645538   +2.46581443
 H   -0.79907215   +5.28754056   -0.27688457
 H   -0.92008220   +0.01496333   -0.56373529
 H   -1.45049918   +5.16618425   +1.37807962
 H   -1.76187963   +3.87116206   +0.21747689
 H   +1.95328027   +3.30273606   +2.84058449
 H   +2.01973911   +2.43591284   +1.32594698
 H   +2.50744231   +1.13705770   +3.64921508
 H   +0.63345179   +1.30754861   +3.81851067
 H   +2.11009556   -0.09341264   +1.52775234
 H   +1.22652628   -0.86355012   +2.83502972
 H   -0.94218309   +0.03896111   +1.85738909
 H   +0.92198876   -0.02407124   -0.56445097
 H   +3.32494982   +1.07124451   +4.07366853
22
 * E =  +0.402 kcal/mol ; (4) 238_055_175_166_178
 C   +0.00000000   +0.00000000   +0.00000000
 C   +0.00000000   +0.00000000   +1.32430434
 C   +1.22296122   +0.00000000   +2.18030566
 C   +1.29333891   -1.17604765   +3.11679604
 C   +1.18694237   -2.53111681   +2.49265566
 C   +1.38667236   -3.63975139   +3.47981422
 O   +1.00605124   -4.81219030   +2.98051701
 C   +1.19289784   -5.92580247   +3.83662681
 O   +1.85017573   -3.51572304   +4.58061361
 H   +0.83796738   -6.78622500   +3.28460260
 H   -0.91917610   +0.00506008   -0.56515278
 H   +0.62460590   -5.79752031   +4.75239190
 H   +2.24295042   -6.03861631   +4.08771139
 H   +0.23398084   -2.67278961   +1.98628111
 H   +1.94592145   -2.65737115   +1.71419928
 H   +0.20296431   -1.06790927   +3.88672126
 H   +2.07734932   -1.11081892   +3.86336228
 H   +1.24984894   +0.91547657   +2.77290895
 H   +2.11206006   +0.01659103   +1.54359597
 H   -0.94595704   -0.00274483   +1.85392867
 H   +0.92283171   +0.00151087   -0.56352414
 H   -0.58937957   -0.99113465   +4.37034229
22
 * E =  +0.430 kcal/mol ; (5) 119_173_071_183_181
 C   +0.00000000   +0.00000000   +0.00000000
 C   +0.00000000   +0.00000000   +1.32410503
 C   +1.22694640   +0.00000000   +2.17230364
 C   +1.31797729   +1.20734331   +3.06250186
 C   +2.42847460   +1.22439408   +4.06695775
 C   +3.78031132   +1.42396414   +3.44338338
 O   +4.74810008   +1.36273222   +4.35317523
 C   +6.06220355   +1.55320321   +3.85677278
 O   +3.98888042   +1.62200506   +2.27721660
 H   +6.71692110   +1.47147505   +4.71443982
 H   -0.91958808   +0.00394395   -0.56458550
 H   +6.15454335   +2.53195785   +3.39678866
 H   +6.30145277   +0.79389767   +3.11900610
 H   +2.29011197   +2.02250349   +4.79611734
 H   +2.45968552   +0.29818277   +4.64058127
 H   +0.20692420   +1.17155467   +3.82096228
 H   +1.19473899   +2.14644779   +2.53204384
 H   +2.11541386   -0.03680532   +1.53890429
 H   +1.24112846   -0.89831728   +2.79501339
 H   -0.94513222   +0.01008057   +1.85447588
 H   +0.92309904   -0.00353795   -0.56238591
 H   -0.53300824   +1.10868835   +4.37538828
22
 * E =  +0.586 kcal/mol ; (6) 239_181_073_184_181
 C   +0.00000000   +0.00000000   +0.00000000
 C   +0.00000000   +0.00000000   +1.32394312
 C   +1.22108040   +0.00000000   +2.17829609
 C   +1.29645780   -1.18901440   +3.09398698
 C   +2.48078355   -1.25713803   +4.00762053
 C   +2.40408565   -0.26828384   +5.13546080
 O   +3.50747976   -0.28769330   +5.87662161
 C   +3.51647131   +0.60541026   +6.97756861
 O   +1.47234049   +0.45426302   +5.36599397
 H   +4.47172642   +0.46338037   +7.46564085
 H   -0.91939122   +0.00121962   -0.56472937
 H   +2.70165751   +0.37620372   +7.65698137
 H   +3.41061494   +1.62963284   +6.63430003
 H   +2.57830482   -2.24664903   +4.45423987
 H   +3.41138410   -1.08035813   +3.46895987
 H   +1.45040626   -2.25545754   +2.28111837
 H   +0.35814209   -1.42180504   +3.58867105
 H   +1.22191752   +0.89931842   +2.80232725
 H   +2.11400381   +0.04484551   +1.55325537
 H   -0.94622193   -0.00229040   +1.85242767
 H   +0.92239411   -0.00101822   -0.56360852
 H   +1.61160391   -2.97478772   +1.72883345
22
 * E =  +0.631 kcal/mol ; (7) 122_175_177_166_178
 C   +0.00000000   +0.00000000   +0.00000000
 C   +0.00000000   +0.00000000   +1.32391028
 C   +1.22504353   +0.00000000   +2.17483471
 C   +1.28214183   +1.17603277   +3.10873999
 C   +2.41543650   +1.18166077   +4.08489570
 C   +2.44204874   +2.41437923   +4.93677126
 O   +3.25886009   +2.27020580   +5.97645352
 C   +3.37220512   +3.40316166   +6.82046209
 O   +1.82959310   +3.42298680   +4.71759909
 H   +4.06317280   +3.12050936   +7.60382774
 H   -0.91938267   +0.00184887   -0.56460928
 H   +2.40423125   +3.66070058   +7.23838869
 H   +3.75228498   +4.25375483   +6.26340672
 H   +2.39341440   +0.30782191   +4.73475792
 H   +3.37689468   +1.13613989   +3.56468901
 H   +0.19350699   +1.05393957   +3.87261016
 H   +1.10852030   +2.13910223   +2.64048332
 H   +2.11306545   -0.01000199   +1.53686057
 H   +1.25914989   -0.92063438   +2.76313693
 H   -0.94437963   +0.00697374   +1.85504814
 H   +0.92232375   -0.00262245   -0.56412421
 H   -0.52868606   +0.88441251   +4.43852103
22
 * E =  +0.730 kcal/mol ; (8) 356_176_072_182_181
 C   +0.00000000   +0.00000000   +0.00000000
 C   +0.00000000   +0.00000000   +1.32462411
 C   +1.19902676   +0.00000000   +2.21398760
 C   +2.52321976   -0.09484899   +1.52497222
 C   +3.73785352   +0.00400430   +2.39572970
 C   +3.95887844   -1.21576908   +3.24357812
 O   +5.02281366   -1.07397294   +4.02854972
 C   +5.31747274   -2.18380466   +4.85975878
 O   +3.28201821   -2.20798709   +3.23083850
 H   +6.20019423   -1.90672535   +5.42097236
 H   -0.92546542   -0.00187399   -0.55434309
 H   +5.50790684   -3.06683090   +4.25806440
 H   +4.48701054   -2.38649377   +5.52862754
 H   +4.63918359   +0.14872401   +1.80056621
 H   +3.68080724   +0.86526215   +3.06136660
 H   +2.61659568   +1.00291089   +0.74836473
 H   +2.58102375   -0.89651241   +0.79478728
 H   +1.11485627   -0.83945112   +2.91104314
 H   +1.17442708   +0.89865429   +2.83687019
 H   -0.95118964   +0.00057577   +1.84226894
 H   +0.91199276   +0.00711089   -0.57784308
 H   +2.71757473   +1.78210047   +0.26248988
22
 * E =  +0.824 kcal/mol ; (9) 114_293_297_180_180
 C   +0.00000000   +0.00000000   +0.00000000
 C   +0.00000000   +0.00000000   +1.32550739
 C   +1.22846574   +0.00000000   +2.17651934
 C   +1.34706225   +1.28278750   +2.95998829
 C   +1.59151315   +2.54865834   +2.19613134
 C   +2.88689217   +2.58052489   +1.44034040
 O   +3.03358336   +3.73732114   +0.79811708
 C   +4.23202889   +3.87130087   +0.05471941
 O   +3.70557716   +1.70337512   +1.39894241
 H   +4.19483940   +4.85640413   -0.39168541
 H   -0.91907240   +0.01373343   -0.56566917
 H   +4.28910484   +3.10602709   -0.71304537
 H   +5.09464867   +3.77907901   +0.70708572
 H   +0.79398982   +2.72364926   +1.46969644
 H   +1.58157826   +3.41324499   +2.85772316
 H   +2.42364688   +1.12156309   +3.75928539
 H   +0.56403728   +1.40408574   +3.70382299
 H   +2.11334730   -0.13709989   +1.56069193
 H   +1.18630184   -0.83297921   +2.87898854
 H   -0.94800459   +0.02481365   +1.85125625
 H   +0.92376908   -0.02660289   -0.56101520
 H   +3.15037027   +1.01376025   +4.30927233
22
 * E =  +0.834 kcal/mol ; (10) 114_286_072_044_181
 C   +0.00000000   +0.00000000   +0.00000000
 C   +0.00000000   +0.00000000   +1.32471922
 C   +1.22831407   +0.00000000   +2.17783768
 C   +1.37218416   +1.28146486   +2.95763842
 C   +1.80714716   +2.50059830   +2.19558958
 C   +0.76318410   +3.06472107   +1.27243834
 O   -0.43393905   +3.11926458   +1.85157536
 C   -1.47622759   +3.61238242   +1.03009260
 O   +0.97038858   +3.45575417   +0.15711373
 H   -2.36973078   +3.59639150   +1.64072007
 H   -0.91984461   +0.01244480   -0.56445200
 H   -1.59511929   +2.97459743   +0.15890328
 H   -1.25571755   +4.62251410   +0.69994182
 H   +2.06819761   +3.29579231   +2.89492911
 H   +2.68549914   +2.29759241   +1.58966822
 H   +2.37302670   +1.05403212   +3.80888917
 H   +0.54953625   +1.47364277   +3.64021459
 H   +2.10854517   -0.15184235   +1.55351055
 H   +1.18212107   -0.83490917   +2.87844663
 H   -0.94437055   +0.02706020   +1.85525700
 H   +0.92103680   -0.00959269   -0.56532794
 H   +3.08562483   +0.89052006   +4.38564498
22
 * E =  +0.842 kcal/mol ; (11) 356_177_177_167_179
 C   +0.00000000   +0.00000000   +0.00000000
 C   +0.00000000   +0.00000000   +1.32444268
 C   +1.20434680   +0.00000000   +2.20802687
 C   +2.52198266   -0.10498977   +1.50732381
 C   +3.73020642   -0.04385192   +2.38698430
 C   +5.00842141   -0.23205884   +1.62747202
 O   +6.06523938   +0.10422956   +2.36147522
 C   +7.32253305   -0.07388878   +1.73205353
 O   +5.09431172   -0.65156014   +0.50616612
 H   +8.06283104   +0.24268201   +2.45505580
 H   -0.92597133   +0.00320425   -0.55352015
 H   +7.38313015   +0.53038598   +0.83252364
 H   +7.46847557   -1.11611403   +1.46605060
 H   +3.78583821   +0.89615348   +2.93441215
 H   +3.69802823   -0.82696918   +3.15033224
 H   +2.61721116   +1.00068912   +0.75948401
 H   +2.58120169   -0.88490441   +0.75525049
 H   +1.10910900   -0.82658685   +2.92149933
 H   +1.18682065   +0.90294226   +2.82475857
 H   -0.94973107   +0.00672925   +1.84466280
 H   +0.91222047   +0.00379424   -0.57746601
 H   +2.70547554   +1.81599020   +0.32200622
22
 * E =  +0.931 kcal/mol ; (12) 352_285_171_162_178
 C   +0.00000000   +0.00000000   +0.00000000
 C   +0.00000000   +0.00000000   +1.32505549
 C   +1.20612218   +0.00000000   +2.21463365
 C   +2.51712263   -0.19278669   +1.51332199
 C   +2.81908812   -1.58443708   +1.04985880
 C   +4.02836289   -1.65687113   +0.16981756
 O   +4.50361830   -2.89605099   +0.09038942
 C   +5.62502126   -3.06291922   -0.75998371
 O   +4.51162915   -0.73014994   -0.42201459
 H   +5.88351264   -4.11232359   -0.70606456
 H   -0.92451826   +0.01763711   -0.55558921
 H   +6.45133501   -2.44683840   -0.41999691
 H   +5.37320880   -2.78269927   -1.77802431
 H   +2.94913979   -2.26891318   +1.88678587
 H   +1.98139775   -1.98367866   +0.47064980
 H   +3.43488575   +0.05758470   +2.44634349
 H   +2.76068255   +0.56662974   +0.77753515
 H   +1.07755947   -0.77326923   +2.97515751
 H   +1.22238547   +0.94387336   +2.76349487
 H   -0.95102411   +0.01522915   +1.84373218
 H   +0.91424509   -0.00644458   -0.57616538
 H   +4.04572390   +0.18447095   +3.13856172
22
 * E =  +0.931 kcal/mol ; (13) 239_180_175_164_178
 C   +0.00000000   +0.00000000   +0.00000000
 C   +0.00000000   +0.00000000   +1.32367181
 C   +1.22350384   +0.00000000   +2.17585573
 C   +1.28999363   -1.18201574   +3.10126400
 C   +2.48880482   -1.24697101   +3.99378140
 C   +2.42773943   -2.38784623   +4.96370666
 O   +3.61926123   -2.63820580   +5.49842246
 C   +3.64638518   -3.68066191   +6.45830574
 O   +1.43594589   -2.99785555   +5.25548382
 H   +4.67540587   -3.75566500   +6.78458284
 H   -0.91948105   -0.00368648   -0.56446925
 H   +3.31722099   -4.61334566   +6.01146137
 H   +2.99617200   -3.44250821   +7.29426831
 H   +3.41440881   -1.31922600   +3.42459588
 H   +2.57959038   -0.33319743   +4.58907594
 H   +1.42010227   -2.24260442   +2.29504009
 H   +0.36247529   -1.41538099   +3.61450315
 H   +1.23932426   +0.91489522   +2.77934443
 H   +2.11365275   +0.03433923   +1.54647819
 H   -0.94618801   -0.00880292   +1.85219788
 H   +0.92230301   +0.00079462   -0.56365685
 H   +1.60161216   -2.94741334   +1.71877891
22
 * E =  +0.984 kcal/mol ; (14) 245_289_179_166_178
 C   +0.00000000   +0.00000000   +0.00000000
 C   +0.00000000   +0.00000000   +1.32470258
 C   +1.23014536   +0.00000000   +2.17372288
 C   +1.36441492   -1.25830697   +2.99023993
 C   +0.39887294   -1.43482006   +4.12010075
 C   +0.60229763   -2.72395690   +4.85715590
 O   -0.04862070   -2.72931900   +6.01711563
 C   +0.06071325   -3.92612398   +6.76840082
 O   +1.24833022   -3.65500385   +4.46210071
 H   -0.51488342   -3.76298093   +7.67010608
 H   -0.91906059   -0.00888278   -0.56524025
 H   +1.09984532   -4.12729516   +7.00859392
 H   -0.33877458   -4.76411827   +6.20583943
 H   +0.45658981   -0.61203657   +4.83159856
 H   -0.63379133   -1.44251808   +3.76027777
 H   +2.54769873   -1.14284351   +3.58629554
 H   +1.50428800   -2.16006533   +2.40353521
 H   +1.21248829   +0.86241249   +2.84363261
 H   +2.10581335   +0.11085471   +1.53634857
 H   -0.94968782   -0.00886366   +1.84657647
 H   +0.92297276   +0.01159319   -0.56266533
 H   +3.35234844   -0.99466460   +4.03652238
22
 * E =  +1.001 kcal/mol ; (15) 114_289_183_325_181
 C   +0.00000000   +0.00000000   +0.00000000
 C   +0.00000000   +0.00000000   +1.32503222
 C   +1.22550347   +0.00000000   +2.18007174
 C   +1.34933211   +1.28054212   +2.96422747
 C   +1.68654994   +2.50202626   +2.16247239
 C   +1.87398383   +3.75962424   +2.95520162
 O   +1.05663689   +3.82690310   +4.00322020
 C   +1.16147410   +5.00896337   +4.77785914
 O   +2.64615528   +4.63468679   +2.67324153
 H   +0.44424736   +4.90143574   +5.58107190
 H   -0.91939807   +0.01405812   -0.56472334
 H   +0.93095832   +5.87947968   +4.17185730
 H   +2.16683292   +5.11232119   +5.17327535
 H   +2.59166240   +2.35716084   +1.57809146
 H   +0.88578137   +2.69923870   +1.44337330
 H   +2.39444624   +1.08695946   +3.77443412
 H   +0.55190681   +1.44105800   +3.68284134
 H   +2.10835635   -0.14141159   +1.55681975
 H   +1.18552061   -0.83819416   +2.87649717
 H   -0.94653256   +0.02427832   +1.85248492
 H   +0.92239499   -0.02356594   -0.56342252
 H   +3.14641139   +0.93983313   +4.30205535
22
 * E =  +1.190 kcal/mol ; (16) 240_056_070_024_178
 C   +0.00000000   +0.00000000   +0.00000000
 C   +0.00000000   +0.00000000   +1.32420741
 C   +1.22333402   +0.00000000   +2.17908694
 C   +1.31644443   -1.19936807   +3.08551309
 C   +1.25292977   -2.55190347   +2.44204234
 C   +2.45307732   -2.92592174   +1.61519529
 O   +3.55037606   -2.26065452   +1.97200194
 C   +4.72592254   -2.60745925   +1.26007010
 O   +2.44755487   -3.75279962   +0.74560805
 H   +5.51224332   -1.98330553   +1.66419924
 H   -0.91912904   +0.00127088   -0.56518697
 H   +4.59448145   -2.42010958   +0.19908659
 H   +4.95846581   -3.65781897   +1.40404499
 H   +1.15729417   -3.32859332   +3.20160681
 H   +0.38961157   -2.64564470   +1.78846877
 H   +0.21468281   -1.14385548   +3.85372985
 H   +2.09763543   -1.11191425   +3.83317201
 H   +1.23618908   +0.90035946   +2.79488641
 H   +2.11525375   +0.04248716   +1.54847409
 H   -0.94621186   -0.00645049   +1.85330371
 H   +0.92246678   +0.00077794   -0.56386253
 H   -0.55617631   -1.10455641   +4.36968931
22
 * E =  +1.222 kcal/mol ; (17) 248_058_076_276_179
 C   +0.00000000   +0.00000000   +0.00000000
 C   +0.00000000   +0.00000000   +1.32429366
 C   +1.22846660   +0.00000000   +2.17263304
 C   +1.41612848   -1.28583940   +2.93768148
 C   +1.51523623   -2.56423844   +2.14401775
 C   +2.86693518   -2.68758349   +1.50613546
 O   +2.93823549   -2.02104121   +0.35363329
 C   +4.19891653   -2.06608377   -0.29273637
 O   +3.80075262   -3.28198781   +1.97222970
 H   +4.08709112   -1.49047474   -1.20242884
 H   -0.91958087   -0.00754332   -0.56479349
 H   +4.46947051   -3.09207074   -0.52104433
 H   +4.96673441   -1.63455945   +0.34184403
 H   +1.39268127   -3.42115149   +2.79936172
 H   +0.74905404   -2.58194075   +1.37279463
 H   +0.30336902   -1.42932564   +3.65348616
 H   +2.16076406   -1.21931400   +3.72600673
 H   +1.17929582   +0.82142206   +2.88795937
 H   +2.10215631   +0.18052566   +1.54319932
 H   -0.94416683   -0.02323590   +1.85598063
 H   +0.92505952   +0.00465088   -0.55894245
 H   -0.48818236   -1.53502933   +4.14103745
22
 * E =  +1.225 kcal/mol ; (18) 121_174_067_038_178
 C   +0.00000000   +0.00000000   +0.00000000
 C   +0.00000000   +0.00000000   +1.32398574
 C   +1.22494167   +0.00000000   +2.17489392
 C   +1.29852368   +1.19225377   +3.08794367
 C   +2.42197116   +1.20358028   +4.08280804
 C   +3.78912999   +1.33178809   +3.46985159
 O   +3.79745243   +2.16764244   +2.43415563
 C   +5.06357968   +2.37463205   +1.83153885
 O   +4.77474014   +0.77369692   +3.86684461
 H   +4.89411295   +3.06627852   +1.01673111
 H   -0.91936020   +0.00145992   -0.56471383
 H   +5.46402036   +1.43631351   +1.46101644
 H   +5.76020855   +2.79348346   +2.55084576
 H   +2.30723314   +2.04477453   +4.76711673
 H   +2.43365454   +0.29883898   +4.68452494
 H   +0.19675761   +1.11676911   +3.85101454
 H   +1.15224651   +2.13974446   +2.57968321
 H   +2.11229038   -0.02428286   +1.53622450
 H   +1.25280947   -0.90944568   +2.77983302
 H   -0.94490799   +0.00690026   +1.85441946
 H   +0.92258021   -0.00418068   -0.56353968
 H   -0.54227241   +1.02391679   +4.40590645
22
 * E =  +1.226 kcal/mol ; (19) 121_178_299_176_179
 C   +0.00000000   +0.00000000   +0.00000000
 C   +0.00000000   +0.00000000   +1.32431693
 C   +1.22210451   +0.00000000   +2.17842696
 C   +1.28116733   +1.19188478   +3.09401852
 C   +2.43309170   +1.28250594   +4.04769190
 C   +2.51772028   +0.15642854   +5.03651463
 O   +3.61408677   +0.26171136   +5.78382158
 C   +3.77675141   -0.74494997   +6.76790253
 O   +1.71864072   -0.72898052   +5.17016707
 H   +4.70213554   -0.51275519   +7.27853291
 H   -0.91917525   -0.00446171   -0.56510935
 H   +3.83203692   -1.72388925   +6.30225741
 H   +2.94286243   -0.73303534   +7.46261791
 H   +3.38627672   +1.32054946   +3.51446360
 H   +2.38773187   +2.20658529   +4.62292810
 H   +0.17850822   +1.10792000   +3.87364797
 H   +1.09443467   +2.13233934   +2.58380059
 H   +2.11158407   -0.01444236   +1.54114817
 H   +1.24671095   -0.90624603   +2.78285509
 H   -0.94502655   +0.00004616   +1.85446207
 H   +0.92264071   -0.00087297   -0.56380991
 H   -0.56508990   +1.05216686   +4.41276557
22
 * E =  +1.273 kcal/mol ; (20) 112_045_067_184_181
 C   +0.00000000   +0.00000000   +0.00000000
 C   +0.00000000   +0.00000000   +1.32445629
 C   +1.22620227   +0.00000000   +2.17438932
 C   +1.44625931   +1.27165749   +2.95292461
 C   +0.28161111   +1.88347985   +3.66952210
 C   -0.21799221   +1.04115475   +4.80755376
 O   -1.30210807   +1.57049348   +5.36688521
 C   -1.83331494   +0.84961979   +6.46582694
 O   +0.28256908   +0.01803450   +5.19041303
 H   -2.69783011   +1.40996265   +6.79680866
 H   -0.91889911   -0.00563117   -0.56573158
 H   -1.09791747   +0.77581081   +7.26071083
 H   -2.12056008   -0.15100159   +6.15863729
 H   +0.54874898   +2.85585669   +4.08251545
 H   -0.55337648   +2.06912006   +2.99528766
 H   +1.77587169   +2.19609303   +2.03161311
 H   +2.34739097   +1.23816305   +3.55752358
 H   +2.10107417   -0.18804137   +1.55323753
 H   +1.16562128   -0.81999611   +2.89458068
 H   -0.95168164   -0.01141891   +1.84298744
 H   +0.92315308   +0.00411877   -0.56238189
 H   +1.98690487   +2.83006645   +1.39297857
22
 * E =  +1.332 kcal/mol ; (21) 110_046_063_102_182
 C   +0.00000000   +0.00000000   +0.00000000
 C   +0.00000000   +0.00000000   +1.32450053
 C   +1.23272839   +0.00000000   +2.16629168
 C   +1.48279304   +1.29595885   +2.89569280
 C   +0.32654473   +1.94825083   +3.61197119
 C   -0.17788900   +1.05878415   +4.70783080
 O   +0.24388843   +1.44294301   +5.90862933
 C   -0.16103664   +0.61712068   +6.98744299
 O   -0.85736660   +0.08124216   +4.53467357
 H   +0.25593944   +1.06855456   +7.87806240
 H   -0.92010125   -0.00329163   -0.56395344
 H   +0.21869515   -0.39109356   +6.85512599
 H   -1.24399863   +0.57938582   +7.04780287
 H   +0.63337211   +2.90287241   +4.02743524
 H   -0.49376579   +2.11126617   +2.91678394
 H   +1.79762552   +2.17362265   +1.94594971
 H   +2.39452051   +1.28210790   +3.48708451
 H   +2.10336731   -0.22615032   +1.55169872
 H   +1.14975861   -0.80260132   +2.90466279
 H   -0.93976184   -0.01109946   +1.86205160
 H   +0.92170954   +0.00130659   -0.56523105
 H   +1.99520617   +2.78658992   +1.27091373
22
 * E =  +1.389 kcal/mol ; (22) 016_060_075_178_180
 C   +0.00000000   +0.00000000   +0.00000000
 C   +0.00000000   +0.00000000   +1.32527202
 C   +1.19198218   +0.00000000   +2.22871830
 C   +2.51648958   +0.36302804   +1.62501256
 C   +2.65545991   +1.72314602   +1.00933999
 C   +2.77471245   +2.80668873   +2.04208968
 O   +2.93993866   +3.99941374   +1.47852653
 C   +3.05552162   +5.08729657   +2.37959365
 O   +2.72910324   +2.64600696   +3.23218576
 H   +3.18207104   +5.96853793   +1.76447046
 H   -0.92582656   -0.02465106   -0.55352583
 H   +3.91236825   +4.94923966   +3.03141479
 H   +2.16061471   +5.17092285   +2.98812945
 H   +3.53661921   +1.78287560   +0.37099493
 H   +1.80470457   +1.97017808   +0.37716441
 H   +2.77897721   -0.51501332   +0.62334175
 H   +3.34452586   +0.12541128   +2.28535581
 H   +1.26794141   -0.98486332   +2.69359161
 H   +1.00780521   +0.68948447   +3.05809095
 H   -0.95426738   -0.02484264   +1.83709210
 H   +0.91197630   +0.00898310   -0.57844282
 H   +3.00878064   -1.09463732   -0.05024207
22
 * E =  +1.406 kcal/mol ; (23) 122_174_072_267_178
 C   +0.00000000   +0.00000000   +0.00000000
 C   +0.00000000   +0.00000000   +1.32399308
 C   +1.22517946   +0.00000000   +2.17490738
 C   +1.27851376   +1.18051141   +3.10566516
 C   +2.39720581   +1.21151013   +4.11537508
 C   +3.70575413   +1.50089526   +3.44061874
 O   +4.35432977   +0.38587277   +3.10911317
 C   +5.58175631   +0.57991051   +2.42674040
 O   +4.12109133   +2.59873710   +3.18691508
 H   +5.97193030   -0.41033245   +2.23143947
 H   -0.91940374   -0.00014396   -0.56460011
 H   +6.27051926   +1.14784950   +3.04399948
 H   +5.41813931   +1.11804629   +1.49830732
 H   +2.22363231   +2.00541775   +4.83594228
 H   +2.45973337   +0.25952771   +4.63672698
 H   +0.18529107   +1.07462658   +3.85556018
 H   +1.11772479   +2.13615309   +2.61471492
 H   +2.11393953   -0.01572675   +1.53995567
 H   +1.26196604   -0.91533545   +2.77029566
 H   -0.94539196   +0.00421942   +1.85367938
 H   +0.92234921   -0.00116627   -0.56394855
 H   -0.55666211   +0.95507639   +4.41316825
22
 * E =  +1.447 kcal/mol ; (24) 239_181_067_034_178
 C   +0.00000000   +0.00000000   +0.00000000
 C   +0.00000000   +0.00000000   +1.32379039
 C   +1.22217441   +0.00000000   +2.17708719
 C   +1.29132210   -1.18087152   +3.10460372
 C   +2.48404519   -1.24417717   +4.01208049
 C   +2.53077143   -0.16857586   +5.06213688
 O   +1.31693985   +0.17008521   +5.49168832
 C   +1.28829418   +1.14761919   +6.51795970
 O   +3.53658360   +0.32241797   +5.49528628
 H   +0.24251704   +1.30814497   +6.74515901
 H   -0.91949377   -0.00138974   -0.56448652
 H   +1.75215631   +2.06758991   +6.17663050
 H   +1.82021602   +0.79067835   +7.39415078
 H   +2.50071433   -2.19596410   +4.54418943
 H   +3.41569600   -1.17681662   +3.45643662
 H   +1.43418566   -2.25315336   +2.30348734
 H   +0.35335956   -1.40312107   +3.60388276
 H   +1.23107591   +0.91161921   +2.78574307
 H   +2.11537851   +0.03648353   +1.55270256
 H   -0.94648903   -0.00569237   +1.85198462
 H   +0.92226959   +0.00049864   -0.56362034
 H   +1.58621408   -2.97894214   +1.75277650
22
 * E =  +1.471 kcal/mol ; (25) 248_291_079_057_181
 C   +0.00000000   +0.00000000   +0.00000000
 C   +0.00000000   +0.00000000   +1.32502257
 C   +1.23523674   +0.00000000   +2.16889289
 C   +1.42159933   -1.28829160   +2.92923275
 C   +0.45789430   -1.59350595   +4.04492939
 C   -0.86406419   -2.12135186   +3.56483336
 O   -0.71467016   -3.21148877   +2.81891971
 C   -1.91246733   -3.76903653   +2.30744987
 O   -1.93580768   -1.63982228   +3.81530794
 H   -1.61469702   -4.64208771   +1.74173748
 H   -0.92004007   -0.00279654   -0.56388754
 H   -2.41641812   -3.05273294   +1.66612496
 H   -2.57809299   -4.04622084   +3.11869845
 H   +0.88917498   -2.35531213   +4.69480943
 H   +0.25508127   -0.71198538   +4.64569526
 H   +2.58675045   -1.14514594   +3.54262509
 H   +1.61152146   -2.14544106   +2.29024903
 H   +1.18990438   +0.82705533   +2.87984264
 H   +2.10494086   +0.16832905   +1.53541500
 H   -0.94620104   -0.00141853   +1.85226379
 H   +0.92205406   +0.00960824   -0.56455990
 H   +3.39609094   -1.02922656   +4.00150792
22
 * E =  +1.530 kcal/mol ; (26) 114_049_171_166_179
 C   +0.00000000   +0.00000000   +0.00000000
 C   +0.00000000   +0.00000000   +1.32414951
 C   +1.22989082   +0.00000000   +2.17031592
 C   +1.42056554   +1.24872578   +2.99019436
 C   +0.25202719   +1.72531986   +3.79465093
 C   +0.61312271   +2.83991527   +4.72952860
 O   -0.47096415   +3.44048386   +5.21190050
 C   -0.22453138   +4.48877539   +6.13321594
 O   +1.72954505   +3.15618141   +5.03709761
 H   -1.19767499   +4.86424608   +6.42132228
 H   -0.91911142   +0.00183919   -0.56529452
 H   +0.36463991   +5.27119594   +5.66562777
 H   +0.31265015   +4.11379095   +6.99875067
 H   -0.57142318   +2.05676397   +3.16424249
 H   -0.15554165   +0.91754964   +4.41112555
 H   +1.63368783   +2.22254326   +2.09448883
 H   +2.35026200   +1.27003629   +3.54882289
 H   +2.10557783   -0.14940663   +1.54064341
 H   +1.19187463   -0.85633385   +2.85283038
 H   -0.94980169   -0.00059462   +1.84594266
 H   +0.92292566   +0.00012771   -0.56263341
 H   +1.73056965   +2.88766671   +1.45446850
22
 * E =  +1.546 kcal/mol ; (27) 246_293_301_173_179
 C   +0.00000000   +0.00000000   +0.00000000
 C   +0.00000000   +0.00000000   +1.32506172
 C   +1.22678150   +0.00000000   +2.17876437
 C   +1.36215389   -1.27657586   +2.96911115
 C   +0.35949902   -1.56791965   +4.04518997
 C   +0.28760158   -0.53259102   +5.12873657
 O   -0.71546834   -0.78745378   +5.96598355
 C   -0.84814080   +0.11836889   +7.04772843
 O   +1.02704784   +0.40349017   +5.26112563
 H   -1.69571180   -0.23012168   +7.62318796
 H   -0.91871871   -0.00456287   -0.56605097
 H   -1.02330103   +1.12437193   +6.67965844
 H   +0.05222825   +0.11805937   +7.65395066
 H   -0.64594387   -1.69281877   +3.63789328
 H   +0.58793335   -2.51635444   +4.53117763
 H   +2.54491989   -1.18021122   +3.60658219
 H   +1.53808327   -2.14360285   +2.33893780
 H   +1.20583857   +0.84320015   +2.86726498
 H   +2.10466719   +0.11983649   +1.54600751
 H   -0.95131084   -0.00601426   +1.84472994
 H   +0.92335304   +0.01211915   -0.56223880
 H   +3.35290423   -1.12715383   +4.04499656
22
 * E =  +1.628 kcal/mol ; (28) 352_182_298_180_180
 C   +0.00000000   +0.00000000   +0.00000000
 C   +0.00000000   +0.00000000   +1.32486284
 C   +1.19943889   +0.00000000   +2.21379818
 C   +2.51364057   -0.18480757   +1.52053683
 C   +3.74260963   -0.24862863   +2.37546425
 C   +4.01680689   +0.99066652   +3.17645325
 O   +5.11758270   +0.84670592   +3.91094772
 C   +5.47236515   +1.96934489   +4.69950569
 O   +3.35845072   +1.99406104   +3.17646654
 H   +6.37691040   +1.68908298   +5.22321974
 H   -0.92544268   +0.01144534   -0.55433845
 H   +4.67989658   +2.20327652   +5.40346155
 H   +5.64815825   +2.83462518   +4.06825003
 H   +3.68971168   -1.08272503   +3.08018660
 H   +4.62758823   -0.43938719   +1.77016439
 H   +2.69470507   +0.90734959   +0.74124365
 H   +2.49937248   -0.97308892   +0.77301790
 H   +1.07611457   -0.79631546   +2.95778507
 H   +1.21866166   +0.92843845   +2.78585816
 H   -0.95138026   +0.01673261   +1.84197831
 H   +0.91193638   +0.00272812   -0.57793949
 H   +2.85238198   +1.64914904   +0.22291347
22
 * E =  +1.649 kcal/mol ; (29) 240_181_073_261_178
 C   +0.00000000   +0.00000000   +0.00000000
 C   +0.00000000   +0.00000000   +1.32378699
 C   +1.22302605   +0.00000000   +2.17640861
 C   +1.29964424   -1.19818445   +3.08228790
 C   +2.48569472   -1.27749843   +4.00854412
 C   +2.34630620   -0.27512812   +5.11619554
 O   +3.05742160   +0.82736605   +4.88901975
 C   +2.94135093   +1.83715260   +5.87752320
 O   +1.64965738   -0.41578163   +6.08462217
 H   +3.57178164   +2.65119997   +5.54470528
 H   -0.91956261   -0.00228784   -0.56434506
 H   +3.27544526   +1.46260561   +6.83981503
 H   +1.90970752   +2.16271533   +5.96711901
 H   +2.52990082   -2.26196361   +4.46634225
 H   +3.40767565   -1.09477097   +3.46301432
 H   +1.46002579   -2.24179577   +2.26379776
 H   +0.36281247   -1.44577510   +3.57407028
 H   +1.23375984   +0.90699851   +2.79022879
 H   +2.11595299   +0.04796725   +1.55249265
 H   -0.94669536   -0.00736019   +1.85158406
 H   +0.92227255   +0.00170684   -0.56365426
 H   +1.63198348   -2.95466395   +1.69438090
22
 * E =  +1.658 kcal/mol ; (30) 114_048_067_274_178
 C   +0.00000000   +0.00000000   +0.00000000
 C   +0.00000000   +0.00000000   +1.32436941
 C   +1.23152630   +0.00000000   +2.16718026
 C   +1.43069297   +1.25553101   +2.97826612
 C   +0.26874999   +1.79489733   +3.77447583
 C   -0.08487257   +0.86195158   +4.89426047
 O   -0.92052587   -0.09676828   +4.49337380
 C   -1.27078560   -1.04935992   +5.48334728
 O   +0.34617134   +0.92493660   +6.01303409
 H   -1.94296272   -1.74619558   +4.99997462
 H   -0.91986692   -0.00382801   -0.56421589
 H   -1.76168494   -0.56097766   +6.31906047
 H   -0.38508791   -1.56075791   +5.84706059
 H   +0.53887188   +2.74749877   +4.21898616
 H   -0.59695538   +1.93490989   +3.13181129
 H   +1.67194065   +2.21207558   +2.08112083
 H   +2.35783667   +1.25135820   +3.54449548
 H   +2.10838104   -0.15164163   +1.53893380
 H   +1.19005769   -0.85317825   +2.85161387
 H   -0.94306989   -0.01080855   +1.85604404
 H   +0.92175533   +0.00447239   -0.56484382
 H   +1.82059296   +2.87817930   +1.44775488
22
 * E =  +1.670 kcal/mol ; (31) 239_186_299_177_179
 C   +0.00000000   +0.00000000   +0.00000000
 C   +0.00000000   +0.00000000   +1.32394892
 C   +1.22524360   +0.00000000   +2.17362584
 C   +1.29678163   -1.19485616   +3.08449182
 C   +2.41306677   -1.24677519   +4.08242852
 C   +3.78940941   -1.24329484   +3.48369787
 O   +4.72048148   -1.23390704   +4.43526633
 C   +6.06005679   -1.24766879   +3.97352534
 O   +4.05260403   -1.25495960   +2.31297322
 H   +6.67912549   -1.24175626   +4.86107939
 H   -0.91953838   -0.00238575   -0.56475161
 H   +6.25895186   -0.37259584   +3.36280756
 H   +6.24719176   -2.13846381   +3.38224094
 H   +2.36076028   -0.40557921   +4.77853830
 H   +2.33828523   -2.13943988   +4.70225561
 H   +1.49072523   -2.26101614   +2.27294295
 H   +0.34095145   -1.45513615   +3.53139850
 H   +1.22853816   +0.90491511   +2.79358439
 H   +2.11646735   +0.04262680   +1.55214833
 H   -0.94787975   -0.00748446   +1.85075044
 H   +0.92332909   -0.00119459   -0.56150535
 H   +1.64184172   -2.98894101   +1.73567947
22
 * E =  +1.700 kcal/mol ; (32) 246_291_189_327_181
 C   +0.00000000   +0.00000000   +0.00000000
 C   +0.00000000   +0.00000000   +1.32474992
 C   +1.23048622   +0.00000000   +2.17353819
 C   +1.37723177   -1.27263138   +2.96599946
 C   +0.38199582   -1.49536787   +4.06660122
 C   +0.67982515   -2.65575006   +4.96983924
 O   +1.28643816   -3.65199308   +4.33221255
 C   +1.57444084   -4.79236439   +5.12302608
 O   +0.38130754   -2.70678397   +6.13152783
 H   +2.06359223   -5.49528713   +4.46151094
 H   -0.91907971   -0.00949158   -0.56518868
 H   +0.65857095   -5.21554668   +5.52329508
 H   +2.22759893   -4.52360600   +5.94696428
 H   +0.28412969   -0.61855338   +4.70182773
 H   -0.60967059   -1.68594701   +3.64602278
 H   +2.54827203   -1.14844606   +3.58842311
 H   +1.54875485   -2.15266748   +2.35525623
 H   +1.20152618   +0.84788748   +2.86090751
 H   +2.10545394   +0.13266397   +1.53930469
 H   -0.94890959   -0.01053532   +1.84792319
 H   +0.92290771   +0.01450752   -0.56278675
 H   +3.34905097   -1.02365021   +4.05352909
22
 * E =  +1.745 kcal/mol ; (33) 239_181_187_327_181
 C   +0.00000000   +0.00000000   +0.00000000
 C   +0.00000000   +0.00000000   +1.32370576
 C   +1.22336821   +0.00000000   +2.17607395
 C   +1.29897581   -1.19173176   +3.08919441
 C   +2.49123229   -1.23757000   +3.99733036
 C   +2.64289915   -2.49932903   +4.79438490
 O   +1.47191124   -3.03799068   +5.12098706
 C   +1.54494034   -4.22146378   +5.89741179
 O   +3.69532692   -2.96513247   +5.13586104
 H   +0.52103366   -4.52723122   +6.06806938
 H   -0.91950630   -0.00354928   -0.56444229
 H   +2.04902420   -4.02539148   +6.83848081
 H   +2.08979284   -4.99085531   +5.35996257
 H   +3.41876826   -1.09986276   +3.44755552
 H   +2.43959232   -0.41930256   +4.72231872
 H   +1.45118553   -2.24490349   +2.27288768
 H   +0.36563437   -1.43941525   +3.58446431
 H   +1.23340393   +0.90884439   +2.78873401
 H   +2.11406683   +0.04542531   +1.54857977
 H   -0.94659432   -0.00821461   +1.85168656
 H   +0.92224168   +0.00166925   -0.56366187
 H   +1.62848945   -2.95640767   +1.70377488
22
 * E =  +1.888 kcal/mol ; (34) 351_284_181_322_181
 C   +0.00000000   +0.00000000   +0.00000000
 C   +0.00000000   +0.00000000   +1.32494324
 C   +1.20459583   +0.00000000   +2.21661671
 C   +2.51801137   -0.20104668   +1.52115191
 C   +2.81715571   -1.60310448   +1.07664530
 C   +4.14321215   -1.79363894   +0.40560732
 O   +4.46887806   -0.76439391   -0.37318844
 C   +5.69903807   -0.89363477   -1.06507203
 O   +4.83211235   -2.77040552   +0.51731697
 H   +5.81446288   +0.01771288   -1.63711609
 H   -0.92446944   +0.01819732   -0.55555311
 H   +5.67434543   -1.75784303   -1.72136239
 H   +6.51670643   -1.01024697   -0.36111124
 H   +2.78012551   -2.29924280   +1.91051434
 H   +2.05459117   -1.93432861   +0.36561451
 H   +3.43540176   +0.06852950   +2.45394177
 H   +2.75314294   +0.55332960   +0.77777136
 H   +1.07285831   -0.76869618   +2.98077353
 H   +1.22252985   +0.94708572   +2.76028219
 H   -0.95131300   +0.01714980   +1.84289941
 H   +0.91375612   -0.01038473   -0.57677743
 H   +4.05229944   +0.22950890   +3.13273637
22
 * E =  +2.039 kcal/mol ; (35) 121_178_311_315_182
 C   +0.00000000   +0.00000000   +0.00000000
 C   +0.00000000   +0.00000000   +1.32411347
 C   +1.22469375   +0.00000000   +2.17508764
 C   +1.28761023   +1.18716997   +3.09611526
 C   +2.45608962   +1.26455029   +4.03794193
 C   +2.72939484   +0.01646622   +4.82548861
 O   +1.61957686   -0.51011412   +5.33328601
 C   +1.80283570   -1.67082636   +6.12506784
 O   +3.81989017   -0.45201626   +5.00961280
 H   +0.81429174   -1.96374715   +6.45347456
 H   -0.91943339   +0.00071658   -0.56460198
 H   +2.43995209   -1.45079286   +6.97585151
 H   +2.26181776   -2.46065750   +5.53856772
 H   +3.37561058   +1.49727980   +3.50256762
 H   +2.29693101   +2.06904005   +4.75687814
 H   +0.17563932   +1.10873096   +3.86292457
 H   +1.10482066   +2.13158267   +2.59156274
 H   +2.11375823   -0.01991942   +1.53866468
 H   +1.24986758   -0.91213581   +2.77508078
 H   -0.94452902   +0.00624084   +1.85497732
 H   +0.92236301   -0.00451037   -0.56401319
 H   -0.58816134   +1.06194755   +4.37320019
22
 * E =  +2.085 kcal/mol ; (36) 111_290_280_037_180
 C   +0.00000000   +0.00000000   +0.00000000
 C   +0.00000000   +0.00000000   +1.32557484
 C   +1.22950395   +0.00000000   +2.17453590
 C   +1.38417999   +1.31632748   +2.89599483
 C   +1.74183206   +2.53152506   +2.08165186
 C   +3.19053065   +2.68985279   +1.71733091
 O   +3.78837889   +1.53242670   +1.44671200
 C   +5.15812620   +1.62612772   +1.09453859
 O   +3.75593655   +3.74638246   +1.64474659
 H   +5.48836091   +0.61100416   +0.91652124
 H   -0.91886496   +0.02092497   -0.56561615
 H   +5.72460567   +2.07585739   +1.90359719
 H   +5.27833924   +2.23124819   +0.20157556
 H   +1.18515884   +2.51156123   +1.13966993
 H   +1.46203259   +3.44775783   +2.59017685
 H   +2.39264714   +1.13468236   +3.75589275
 H   +0.56832119   +1.51446631   +3.58579359
 H   +2.10589191   -0.19051486   +1.56168014
 H   +1.16467377   -0.79864088   +2.91409231
 H   -0.94678251   +0.03474541   +1.85220120
 H   +0.92313081   -0.03404574   -0.56172321
 H   +3.10751981   +1.00496670   +4.33358897
22
 * E =  +2.286 kcal/mol ; (37) 247_296_309_094_182
 C   +0.00000000   +0.00000000   +0.00000000
 C   +0.00000000   +0.00000000   +1.32494680
 C   +1.23131250   +0.00000000   +2.17225404
 C   +1.38707961   -1.28497696   +2.94392772
 C   +0.34888567   -1.62267804   +3.98543573
 C   +0.12009511   -0.49252095   +4.94369355
 O   -0.89670975   +0.28161598   +4.56249511
 C   -1.15420919   +1.39833752   +5.39690224
 O   +0.77246434   -0.27437602   +5.92654732
 H   -1.99619735   +1.91288503   +4.95275884
 H   -0.91955896   -0.01075657   -0.56460183
 H   -0.28594396   +2.04862210   +5.43765786
 H   -1.39333197   +1.06965815   +6.40326492
 H   -0.59572752   -1.87500321   +3.50369054
 H   +0.67900754   -2.48112520   +4.56355930
 H   +2.54513265   -1.15112645   +3.61435010
 H   +1.60787569   -2.13748323   +2.30825946
 H   +1.19469675   +0.84008040   +2.86846417
 H   +2.10868262   +0.14617798   +1.54450015
 H   -0.94321767   -0.01121959   +1.85719952
 H   +0.92211326   +0.01667475   -0.56430051
 H   +3.34153602   -1.04297721   +4.07038493
22
 * E =  +2.336 kcal/mol ; (38) 240_054_288_152_178
 C   +0.00000000   +0.00000000   +0.00000000
 C   +0.00000000   +0.00000000   +1.32489120
 C   +1.23138720   +0.00000000   +2.16690675
 C   +1.35820705   -1.19447579   +3.07664083
 C   +1.27657279   -2.55611715   +2.45178810
 C   -0.09237361   -2.96978920   +1.99059928
 O   -0.01913126   -3.82213823   +0.97135098
 C   -1.26347924   -4.30609138   +0.49901893
 O   -1.13067874   -2.63481819   +2.49002101
 H   -1.02957587   -4.98398106   -0.31154419
 H   -0.92003215   +0.00357689   -0.56408241
 H   -1.87604558   -3.48301544   +0.14445379
 H   -1.79510367   -4.82449894   +1.29085472
 H   +1.95767858   -2.63780940   +1.60326878
 H   +1.59037066   -3.31536850   +3.16837873
 H   +0.33443919   -1.07630188   +3.97259162
 H   +2.19974146   -1.10482643   +3.75643559
 H   +1.24728664   +0.89998905   +2.78390320
 H   +2.11101592   +0.05326580   +1.51863103
 H   -0.94086934   -0.01843841   +1.86023295
 H   +0.92233822   +0.00255545   -0.56460732
 H   -0.31745449   -0.92714245   +4.59011259
22
 * E =  +2.502 kcal/mol ; (39) 240_185_311_315_182
 C   +0.00000000   +0.00000000   +0.00000000
 C   +0.00000000   +0.00000000   +1.32373858
 C   +1.22363194   +0.00000000   +2.17552269
 C   +1.30937344   -1.20198187   +3.07539741
 C   +2.44598832   -1.24132315   +4.05782309
 C   +3.80217210   -0.95052592   +3.48400392
 O   +4.01073393   -1.58865177   +2.33712468
 C   +5.28861050   -1.39632134   +1.75635342
 O   +4.62724366   -0.24732512   +4.00132522
 H   +5.28876828   -1.97732411   +0.84346804
 H   -0.91937182   -0.00270395   -0.56473163
 H   +6.06591894   -1.74190725   +2.43057690
 H   +5.45296589   -0.34485299   +1.54202212
 H   +2.29414372   -0.52360283   +4.86300890
 H   +2.49928147   -2.22803083   +4.51942149
 H   +1.46739830   -2.26355378   +2.24799603
 H   +0.36296456   -1.46416620   +3.54093393
 H   +1.22697577   +0.90131585   +2.79925051
 H   +2.11249297   +0.05491572   +1.54749216
 H   -0.94707022   -0.00755349   +1.85116947
 H   +0.92262076   +0.00116256   -0.56289006
 H   +1.56527485   -2.98490469   +1.69240369
22
 * E =  +2.545 kcal/mol ; (40) 118_177_282_034_180
 C   +0.00000000   +0.00000000   +0.00000000
 C   +0.00000000   +0.00000000   +1.32426591
 C   +1.22352301   +0.00000000   +2.17683111
 C   +1.31594655   +1.22916427   +3.04076717
 C   +2.46134277   +1.33520919   +4.01215630
 C   +2.34501962   +0.54847554   +5.28792288
 O   +1.70837221   -0.60787109   +5.13112600
 C   +1.57408161   -1.39069491   +6.30554715
 O   +2.80164076   +0.90411007   +6.33959127
 H   +1.03744246   -2.28188592   +6.00748347
 H   -0.91905524   +0.00362239   -0.56526387
 H   +1.01788604   -0.84373521   +7.05994698
 H   +2.55121090   -1.64553193   +6.70321199
 H   +3.38678450   +1.00252765   +3.53232520
 H   +2.62622177   +2.36385206   +4.31508451
 H   +0.20571919   +1.22004738   +3.79589469
 H   +1.16843784   +2.14590033   +2.47757576
 H   +2.11127234   -0.05589368   +1.53993272
 H   +1.23487108   -0.88440270   +2.81250388
 H   -0.94544960   +0.01138507   +1.85366737
 H   +0.92261817   -0.00886883   -0.56372321
 H   -0.54311990   +1.18430101   +4.34485249
22
 * E =  +2.549 kcal/mol ; (41) 113_050_181_329_181
 C   +0.00000000   +0.00000000   +0.00000000
 C   +0.00000000   +0.00000000   +1.32408958
 C   +1.23187217   +0.00000000   +2.16764408
 C   +1.44382351   +1.25653064   +2.97227931
 C   +0.29063236   +1.74556790   +3.79654327
 C   +0.53939668   +3.00861684   +4.56741785
 O   +1.81024793   +3.14567687   +4.93369942
 C   +2.10048640   +4.30863838   +5.69003120
 O   -0.31335776   +3.80162385   +4.85963991
 H   +3.16198461   +4.26996485   +5.89686984
 H   -0.91928103   +0.00138023   -0.56491087
 H   +1.52935125   +4.31124707   +6.61302726
 H   +1.85322783   +5.19895842   +5.12094277
 H   -0.59428311   +1.92411831   +3.19225825
 H   +0.01017857   +0.98771715   +4.53577156
 H   +1.65509649   +2.22283047   +2.06284195
 H   +2.38580147   +1.26503065   +3.50971730
 H   +2.10371616   -0.16481394   +1.53627768
 H   +1.18945594   -0.84809066   +2.86005168
 H   -0.94960907   -0.00342501   +1.84533528
 H   +0.92270164   +0.00107972   -0.56310260
 H   +1.77162863   +2.88735273   +1.42656816
22
 * E =  +2.661 kcal/mol ; (42) 016_060_072_020_178
 C   +0.00000000   +0.00000000   +0.00000000
 C   +0.00000000   +0.00000000   +1.32473733
 C   +1.19254534   +0.00000000   +2.22859346
 C   +2.51791288   +0.37176219   +1.62953322
 C   +2.65423741   +1.73704744   +1.02179649
 C   +2.69929054   +2.87690567   +2.00370475
 O   +3.04135758   +2.49222961   +3.23174050
 C   +3.14090779   +3.53594390   +4.18580556
 O   +2.47900800   +4.02162586   +1.71861390
 H   +3.41799407   +3.06024327   +5.11753736
 H   -0.92632395   -0.02512453   -0.55245263
 H   +2.18974184   +4.04925160   +4.28470638
 H   +3.89653676   +4.25358830   +3.88252541
 H   +3.57906359   +1.80425703   +0.44719346
 H   +1.84538149   +1.96338785   +0.33389481
 H   +2.77855761   -0.49497648   +0.62413246
 H   +3.34683747   +0.12488310   +2.28445180
 H   +1.27257965   -0.98691041   +2.68850279
 H   +0.99620226   +0.68042175   +3.06401556
 H   -0.95400819   -0.02697304   +1.83677837
 H   +0.91094335   +0.01306482   -0.57955988
 H   +3.00987646   -1.07385451   -0.05466789
22
 * E =  +2.753 kcal/mol ; (43) 015_062_187_323_181
 C   +0.00000000   +0.00000000   +0.00000000
 C   +0.00000000   +0.00000000   +1.32458257
 C   +1.19305977   +0.00000000   +2.22846657
 C   +2.52514471   +0.33480701   +1.62317359
 C   +2.67423273   +1.70047716   +1.01561207
 C   +3.95818610   +1.91954045   +0.27258795
 O   +4.98832423   +1.30940157   +0.85329719
 C   +6.23971083   +1.49073755   +0.21375500
 O   +4.06993171   +2.59027785   -0.71679073
 H   +6.95610212   +0.93022387   +0.80002964
 H   -0.92681383   -0.02679839   -0.55158518
 H   +6.50334741   +2.54345028   +0.19026742
 H   +6.20043793   +1.11524721   -0.80372139
 H   +1.86353604   +1.94233363   +0.33717781
 H   +2.64655148   +2.45190570   +1.81129243
 H   +2.76127159   -0.54560167   +0.62557881
 H   +3.35781643   +0.07649471   +2.26842537
 H   +1.25685095   -0.97901601   +2.70721617
 H   +0.99933512   +0.69919916   +3.04971514
 H   -0.95325375   -0.02878700   +1.83797100
 H   +0.91008548   +0.01610936   -0.58064131
 H   +2.96916802   -1.12805009   -0.06128489
22
 * E =  +2.935 kcal/mol ; (44) 239_184_282_037_180
 C   +0.00000000   +0.00000000   +0.00000000
 C   +0.00000000   +0.00000000   +1.32395117
 C   +1.22510078   +0.00000000   +2.17386363
 C   +1.29534181   -1.19574580   +3.08473436
 C   +2.43231937   -1.28079296   +4.06863032
 C   +3.76409525   -1.71416090   +3.52248163
 O   +4.00865564   -1.23402747   +2.30708741
 C   +5.25424363   -1.61206551   +1.74559387
 O   +4.54727341   -2.39739975   +4.12324466
 H   +5.29252433   -1.14669831   +0.76933101
 H   -0.91913413   -0.00343153   -0.56522689
 H   +5.31397529   -2.69198031   +1.65685619
 H   +6.07114067   -1.26356203   +2.36939922
 H   +2.59447644   -0.30361498   +4.53368579
 H   +2.20545129   -1.97270301   +4.87271854
 H   +1.44598254   -2.25321680   +2.26990667
 H   +0.34065480   -1.43021857   +3.54767694
 H   +1.22772113   +0.90114930   +2.79848042
 H   +2.11590540   +0.05135384   +1.55335813
 H   -0.94784920   -0.00931744   +1.85043633
 H   +0.92298958   +0.00235167   -0.56228500
 H   +1.60684606   -2.97156447   +1.70776585
22
 * E =  +3.819 kcal/mol ; (45) 109_052_298_305_177
 C   +0.00000000   +0.00000000   +0.00000000
 C   +0.00000000   +0.00000000   +1.32445431
 C   +1.23524316   +0.00000000   +2.16522660
 C   +1.52094716   +1.28266730   +2.90641883
 C   +0.44858619   +1.89332031   +3.76883607
 C   -0.80182843   +2.31926638   +3.05459686
 O   -0.54056384   +3.14725999   +2.05328204
 C   -1.65857736   +3.54779241   +1.28352587
 O   -1.91474361   +1.97592389   +3.35357275
 H   -1.27551852   +4.23392584   +0.53968862
 H   -0.92037357   -0.01088299   -0.56365761
 H   -2.39996068   +4.03255830   +1.91062279
 H   -2.10783608   +2.68206940   +0.80546563
 H   +0.13854967   +1.19970915   +4.55014549
 H   +0.85155207   +2.77737840   +4.26181404
 H   +1.84747940   +2.17899435   +1.93662134
 H   +2.46982091   +1.23625105   +3.43320036
 H   +2.09687445   -0.23069338   +1.53979502
 H   +1.16176371   -0.80962664   +2.89890330
 H   -0.94807494   -0.01605799   +1.84758484
 H   +0.92174652   +0.00939147   -0.56482162
 H   +2.12726159   +2.73153140   +1.26545314
22
 * E =  +4.570 kcal/mol ; (46) 115_048_285_131_178
 C   +0.00000000   +0.00000000   +0.00000000
 C   +0.00000000   +0.00000000   +1.32389615
 C   +1.22872473   +0.00000000   +2.17075432
 C   +1.42186186   +1.23624332   +3.01207004
 C   +0.25190797   +1.74163802   +3.81166596
 C   -0.81002589   +2.43411415   +3.00214971
 O   -2.02875749   +1.97123486   +3.28325077
 C   -3.08682438   +2.60514929   +2.58581082
 O   -0.61413682   +3.32353540   +2.22314603
 H   -2.95785618   +2.48313437   +1.51473456
 H   -0.91914904   -0.00285344   -0.56515305
 H   -3.11058938   +3.66550996   +2.81667009
 H   -3.99502386   +2.12091778   +2.92038008
 H   -0.21230207   +0.93256343   +4.37682821
 H   +0.59917634   +2.47883281   +4.53380199
 H   +1.77847157   +2.21152428   +2.12761117
 H   +2.32980684   +1.18528315   +3.60488163
 H   +2.10682875   -0.13734681   +1.54073628
 H   +1.19229810   -0.86571764   +2.84119993
 H   -0.94853920   -0.01003015   +1.84856130
 H   +0.92242492   +0.00959463   -0.56323930
 H   +2.07156932   +2.80799396   +1.50589928
22
 * E =  +7.721 kcal/mol ; (47) 241_054_072_185_002
 C   +0.00000000   +0.00000000   +0.00000000
 C   +0.00000000   +0.00000000   +1.32508279
 C   +1.22520441   +0.00000000   +2.17667323
 C   +1.33440287   -1.21616993   +3.05747347
 C   +1.25261015   -2.55254316   +2.38608749
 C   +2.49449194   -2.85395290   +1.58378750
 O   +2.50666450   -3.97569790   +0.85625420
 C   +1.38090869   -4.82191120   +0.79613049
 O   +3.46150389   -2.14874994   +1.57952464
 H   +1.68489384   -5.67297877   +0.19981697
 H   -0.91945704   +0.00559658   -0.56525631
 H   +0.54061717   -4.33063432   +0.31118412
 H   +1.08386068   -5.16851875   +1.78288895
 H   +1.12282931   -3.34576737   +3.12389601
 H   +0.38410652   -2.59656610   +1.72925451
 H   +0.24541552   -1.17963471   +3.85469824
 H   +2.13899801   -1.14989432   +3.78200535
 H   +1.22647994   +0.88686817   +2.81163278
 H   +2.11772033   +0.05717976   +1.55099649
 H   -0.94693258   -0.00693008   +1.85366500
 H   +0.92388187   +0.00792639   -0.56156172
 H   -0.51386564   -1.16106532   +4.38203867
22
 * E =  +8.248 kcal/mol ; (48) 114_290_172_173_358
 C   +0.00000000   +0.00000000   +0.00000000
 C   +0.00000000   +0.00000000   +1.32533692
 C   +1.22536988   +0.00000000   +2.18021607
 C   +1.34713537   +1.27832758   +2.96779075
 C   +1.67488641   +2.50379574   +2.17448753
 C   +1.59641949   +3.75847517   +3.00219264
 O   +2.01003424   +4.89991754   +2.43967359
 C   +2.54383777   +4.92477851   +1.13610302
 O   +1.16687222   +3.78374641   +4.11779609
 H   +2.70321164   +5.97027950   +0.90380385
 H   -0.91920343   +0.01363664   -0.56507960
 H   +1.85538570   +4.50128394   +0.40879431
 H   +3.49695832   +4.40289814   +1.08685361
 H   +2.66553909   +2.41472820   +1.72612094
 H   +0.98184289   +2.60404912   +1.33315784
 H   +2.40557591   +1.09281365   +3.75738277
 H   +0.56432001   +1.44254865   +3.70054163
 H   +2.10792283   -0.14235294   +1.55598232
 H   +1.18611696   -0.83889067   +2.87544714
 H   -0.94624506   +0.02602980   +1.85285386
 H   +0.92259355   -0.02906243   -0.56330794
 H   +3.18647051   +0.94429573   +4.23735400
22
 * E =  +8.308 kcal/mol ; (49) 117_302_091_191_003
 C   +0.00000000   +0.00000000   +0.00000000
 C   +0.00000000   +0.00000000   +1.32552300
 C   +1.23763050   +0.00000000   +2.16339325
 C   +1.34793787   +1.25135742   +2.99630226
 C   +1.34958947   +2.54851067   +2.24435899
 C   -0.04333927   +3.11013662   +2.08393921
 O   -0.20665012   +4.14075083   +1.24903317
 C   +0.86416358   +4.64438856   +0.48372013
 O   -0.98857078   +2.70356504   +2.69461229
 H   +0.48011501   +5.52659727   -0.01299865
 H   -0.91988114   +0.01724156   -0.56375933
 H   +1.18509761   +3.92655819   -0.26757592
 H   +1.70871144   +4.92850976   +1.10682551
 H   +1.93877208   +3.30096535   +2.77457274
 H   +1.81746655   +2.42429575   +1.26886901
 H   +2.55818303   +1.17761175   +3.56630969
 H   +0.69441338   +1.27291142   +3.86174989
 H   +2.10983375   -0.08643980   +1.51363521
 H   +1.24141713   -0.86665739   +2.82425899
 H   -0.94064873   +0.04089281   +1.85919679
 H   +0.92257835   -0.03077642   -0.56393703
 H   +3.40942823   +1.15156874   +3.92881886
22
 * E =  +8.480 kcal/mol ; (50) 238_055_175_173_357
 C   +0.00000000   +0.00000000   +0.00000000
 C   +0.00000000   +0.00000000   +1.32456160
 C   +1.22235784   +0.00000000   +2.18147726
 C   +1.29346277   -1.17650323   +3.11718473
 C   +1.18924306   -2.52959797   +2.48796131
 C   +1.39597764   -3.63760731   +3.48586755
 O   +1.18668318   -4.89225883   +3.07084980
 C   +0.72670973   -5.16637171   +1.76746599
 O   +1.75661698   -3.45036025   +4.61039089
 H   +0.73682608   -6.24498731   +1.67313652
 H   -0.91914366   +0.00820810   -0.56527051
 H   +1.37854111   -4.73818039   +1.00979275
 H   -0.28967148   -4.80785506   +1.62118745
 H   +0.22986806   -2.64807707   +1.98440269
 H   +1.94017461   -2.64105729   +1.69837475
 H   +0.19707809   -1.07662960   +3.88175479
 H   +2.07238165   -1.11367865   +3.86822386
 H   +1.24666976   +0.91445367   +2.77560460
 H   +2.11218751   +0.02021759   +1.54578928
 H   -0.94620518   -0.00074707   +1.85388952
 H   +0.92291945   +0.00363407   -0.56351002
 H   -0.60159913   -1.00436219   +4.35056960
22
 * E =  +8.508 kcal/mol ; (51) 120_173_073_183_001
 C   +0.00000000   +0.00000000   +0.00000000
 C   +0.00000000   +0.00000000   +1.32400907
 C   +1.22761188   +0.00000000   +2.17152262
 C   +1.31297941   +1.20477214   +3.06508874
 C   +2.41880663   +1.22146118   +4.07542676
 C   +3.76791027   +1.45736772   +3.44073845
 O   +4.84110022   +1.43628076   +4.23870385
 C   +4.72605735   +1.17966496   +5.61973102
 O   +3.91666142   +1.66888618   +2.27288215
 H   +5.72866999   +1.26707964   +6.01892749
 H   -0.91979186   +0.00294675   -0.56423308
 H   +4.35632342   +0.17475887   +5.81003387
 H   +4.08447048   +1.90597405   +6.11269094
 H   +2.24921885   +2.00522878   +4.81530991
 H   +2.44388437   +0.28334197   +4.63162892
 H   +0.20015287   +1.16591381   +3.82104665
 H   +1.19540978   +2.14563629   +2.53717789
 H   +2.11651819   -0.02992262   +1.53883110
 H   +1.24398650   -0.90092348   +2.79071366
 H   -0.94504175   +0.00843873   +1.85461542
 H   +0.92300884   -0.00178155   -0.56240675
 H   -0.53781023   +1.10341691   +4.37922269
22
 * E =  +8.623 kcal/mol ; (52) 240_182_074_183_001
 C   +0.00000000   +0.00000000   +0.00000000
 C   +0.00000000   +0.00000000   +1.32389340
 C   +1.22111620   +0.00000000   +2.17813007
 C   +1.30523614   -1.20232507   +3.07508023
 C   +2.48354180   -1.26849911   +3.99751129
 C   +2.35010344   -0.30969305   +5.15566052
 O   +3.36864836   -0.23019464   +6.01823473
 C   +4.54051019   -0.99383089   +5.84388309
 O   +1.37989602   +0.36619063   +5.33843850
 H   +5.16414507   -0.77426793   +6.70122774
 H   -0.91945430   +0.00069471   -0.56456812
 H   +5.07126391   -0.70921619   +4.93832719
 H   +4.32765512   -2.05985824   +5.82440414
 H   +2.59722152   -2.27599649   +4.40081932
 H   +3.40707068   -1.05534914   +3.45771056
 H   +1.48235802   -2.25504851   +2.24855578
 H   +0.36860197   -1.45379849   +3.56284080
 H   +1.21325345   +0.88866991   +2.81668177
 H   +2.11339807   +0.06134782   +1.55324170
 H   -0.94571633   -0.00326654   +1.85302529
 H   +0.92228725   +0.00108446   -0.56384795
 H   +1.66387675   -2.96704840   +1.69242113
22
 * E =  +8.964 kcal/mol ; (53) 115_295_299_175_358
 C   +0.00000000   +0.00000000   +0.00000000
 C   +0.00000000   +0.00000000   +1.32577054
 C   +1.22924106   +0.00000000   +2.17597957
 C   +1.33666742   +1.27456321   +2.97365952
 C   +1.51865424   +2.55515761   +2.21497282
 C   +2.78113723   +2.60326985   +1.39341970
 O   +2.96449982   +3.67516732   +0.61223731
 C   +2.00424769   +4.70248515   +0.52853459
 O   +3.62114812   +1.75265275   +1.41108088
 H   +2.43443664   +5.45378761   -0.12191223
 H   -0.91952968   +0.00854995   -0.56523710
 H   +1.80434496   +5.14911714   +1.49964280
 H   +1.07496968   +4.34535351   +0.09050773
 H   +0.66538400   +2.71966869   +1.55199201
 H   +1.52994381   +3.40157466   +2.90246270
 H   +2.44265369   +1.13608986   +3.74598846
 H   +0.57134570   +1.36801151   +3.73971911
 H   +2.11496884   -0.12138836   +1.55814605
 H   +1.19453615   -0.84050982   +2.86956754
 H   -0.94814847   +0.01976326   +1.85181453
 H   +0.92389235   -0.02409968   -0.56096249
 H   +3.17569865   +1.04401655   +4.28199662
22
 * E =  +9.006 kcal/mol ; (54) 122_174_177_173_357
 C   +0.00000000   +0.00000000   +0.00000000
 C   +0.00000000   +0.00000000   +1.32380219
 C   +1.22518324   +0.00000000   +2.17476733
 C   +1.28159475   +1.17914791   +3.10475513
 C   +2.41175048   +1.18393846   +4.08505313
 C   +2.43147741   +2.43492973   +4.92447322
 O   +3.30959993   +2.49261685   +5.93247485
 C   +4.14643903   +1.40251064   +6.24214830
 O   +1.72166000   +3.37372774   +4.71727849
 H   +4.80127240   +1.74965980   +7.03149211
 H   -0.91949279   +0.00315564   -0.56433351
 H   +4.75006012   +1.10022301   +5.38959071
 H   +3.57386934   +0.55251821   +6.60663790
 H   +2.36327123   +0.30450001   +4.72863737
 H   +3.37261426   +1.11264600   +3.56495648
 H   +0.19436665   +1.05719181   +3.87168340
 H   +1.10837316   +2.14193712   +2.63740322
 H   +2.11284001   -0.01314115   +1.53618749
 H   +1.25713565   -0.91972492   +2.76505253
 H   -0.94413241   +0.00842498   +1.85521966
 H   +0.92214794   -0.00320606   -0.56440476
 H   -0.52056449   +0.87563881   +4.43945638
22
 * E =  +9.155 kcal/mol ; (55) 017_060_075_182_001
 C   +0.00000000   +0.00000000   +0.00000000
 C   +0.00000000   +0.00000000   +1.32558104
 C   +1.19255348   +0.00000000   +2.22833462
 C   +2.50930225   +0.40009352   +1.63175312
 C   +2.61208253   +1.77371117   +1.03878340
 C   +2.70490608   +2.83317073   +2.10982763
 O   +2.76460061   +4.10957880   +1.71623478
 C   +2.71406100   +4.46018562   +0.35192422
 O   +2.73169292   +2.58518845   +3.28038553
 H   +2.80832627   +5.53838237   +0.32264443
 H   -0.92561742   -0.02763853   -0.55380347
 H   +1.76648238   +4.17481791   -0.09874813
 H   +3.53464379   +4.01786746   -0.20774124
 H   +3.49514192   +1.85153087   +0.40241698
 H   +1.75534478   +1.99018656   +0.40263063
 H   +2.79731223   -0.45173448   +0.61287811
 H   +3.34196982   +0.17732400   +2.29053543
 H   +1.28691951   -0.99355552   +2.67053437
 H   +0.99934687   +0.66706613   +3.07347238
 H   -0.95426216   -0.02708523   +1.83708331
 H   +0.91250261   +0.00735893   -0.57803016
 H   +3.04774177   -1.00513511   -0.07479224
22
 * E =  +9.196 kcal/mol ; (56) 353_288_142_170_358
 C   +0.00000000   +0.00000000   +0.00000000
 C   +0.00000000   +0.00000000   +1.32579392
 C   +1.21535478   +0.00000000   +2.20321570
 C   +2.50554224   -0.16857090   +1.45825416
 C   +2.76624968   -1.53771656   +0.89610189
 C   +3.43333486   -1.50420000   -0.45402583
 O   +3.88514695   -2.65897574   -0.95206978
 C   +3.78567948   -3.86395094   -0.22766582
 O   +3.54654564   -0.50871545   -1.10878684
 H   +4.11723951   -4.64097323   -0.90491321
 H   -0.92615238   +0.01491148   -0.55331331
 H   +2.76195965   -4.07035430   +0.07456087
 H   +4.43341001   -3.85644542   +0.64602339
 H   +3.35911013   -2.13687747   +1.58881981
 H   +1.82256403   -2.07690235   +0.77286429
 H   +3.44984375   +0.01558415   +2.37317348
 H   +2.72759949   +0.62728863   +0.75572164
 H   +1.10893266   -0.78966916   +2.95097202
 H   +1.23602125   +0.93374220   +2.76799316
 H   -0.94810836   +0.01119922   +1.84981593
 H   +0.91459505   -0.00077314   -0.57768924
 H   +4.09123601   +0.07336509   +3.04748262
22
 * E =  +9.300 kcal/mol ; (57) 238_180_174_172_357
 C   +0.00000000   +0.00000000   +0.00000000
 C   +0.00000000   +0.00000000   +1.32357521
 C   +1.22350280   +0.00000000   +2.17598826
 C   +1.28389353   -1.17951213   +3.10497716
 C   +2.48415512   -1.24797148   +3.99566129
 C   +2.39532014   -2.38200144   +4.98373935
 O   +3.47735320   -2.64675833   +5.72484194
 C   +4.68165901   -1.93729834   +5.54881340
 O   +1.40482581   -3.02992073   +5.14983423
 H   +5.34559432   -2.28751736   +6.32917418
 H   -0.91958498   -0.00398834   -0.56418796
 H   +4.54022454   -0.86484799   +5.66018338
 H   +5.13081870   -2.15039442   +4.58136062
 H   +3.39539160   -1.33954579   +3.40318157
 H   +2.59698720   -0.31835004   +4.56341230
 H   +1.41654761   -2.24213950   +2.30203441
 H   +0.35693763   -1.41208459   +3.61797257
 H   +1.24129944   +0.91759185   +2.77549939
 H   +2.11350562   +0.02949716   +1.54572474
 H   -0.94588335   -0.00897971   +1.85242440
 H   +0.92208798   +0.00060128   -0.56403061
 H   +1.61005210   -2.93907496   +1.72291489
22
 * E =  +9.344 kcal/mol ; (58) 254_060_068_092_005
 C   +0.00000000   +0.00000000   +0.00000000
 C   +0.00000000   +0.00000000   +1.32463595
 C   +1.23654861   +0.00000000   +2.16344369
 C   +1.50432825   -1.33246985   +2.81750156
 C   +1.70720195   -2.50647300   +1.89046113
 C   +3.00449691   -2.33551437   +1.14201934
 O   +4.12314400   -2.86545003   +1.64991881
 C   +4.10290969   -3.66893269   +2.80749415
 O   +3.07819092   -1.68821994   +0.13680374
 H   +5.14039078   -3.87828675   +3.03682935
 H   -0.92161951   -0.01087005   -0.56186008
 H   +3.58385683   -4.60778931   +2.62929707
 H   +3.65137248   -3.15268676   +3.65119536
 H   +1.66662488   -3.44042813   +2.44328007
 H   +0.92149292   -2.51206585   +1.14064629
 H   +0.40016928   -1.63385297   +3.49903566
 H   +2.23450284   -1.27687287   +3.62159092
 H   +1.15729765   +0.75905628   +2.94119114
 H   +2.09310484   +0.26639605   +1.54068081
 H   -0.94180316   -0.02634622   +1.86008396
 H   +0.92585884   +0.00144577   -0.55777292
 H   -0.38126682   -1.85628307   +3.96260688
22
 * E =  +9.379 kcal/mol ; (59) 244_289_179_173_357
 C   +0.00000000   +0.00000000   +0.00000000
 C   +0.00000000   +0.00000000   +1.32461641
 C   +1.22964669   +0.00000000   +2.17435269
 C   +1.35627883   -1.24971677   +3.00496039
 C   +0.39763133   -1.39853939   +4.14509235
 C   +0.59344355   -2.69770896   +4.88288622
 O   -0.10458984   -2.88317586   +6.00956222
 C   -0.95054952   -1.88110517   +6.52365942
 O   +1.31868798   -3.56614398   +4.49844759
 H   -1.44544861   -2.32435157   +7.37865067
 H   -0.91897588   -0.00826390   -0.56531404
 H   -1.70226949   -1.57520325   +5.79979703
 H   -0.38438103   -1.01318707   +6.85435544
 H   +0.49393859   -0.55975952   +4.83592235
 H   -0.63784758   -1.37138898   +3.79196948
 H   +2.54275462   -1.13709488   +3.59709462
 H   +1.48450527   -2.16164910   +2.43276524
 H   +1.21965729   +0.87125236   +2.83332959
 H   +2.10604109   +0.09690606   +1.53577508
 H   -0.95058600   -0.00711698   +1.84523135
 H   +0.92299518   +0.00987844   -0.56254092
 H   +3.34443895   -0.97783909   +4.04382833
22
 * E =  +9.579 kcal/mol ; (60) 105_291_299_262_356
 C   +0.00000000   +0.00000000   +0.00000000
 C   +0.00000000   +0.00000000   +1.32544037
 C   +1.24052214   +0.00000000   +2.16144575
 C   +1.48277455   +1.36226895   +2.76142613
 C   +1.87113356   +2.46981962   +1.80803954
 C   +3.16818891   +2.17213446   +1.09995511
 O   +4.30091960   +2.71471150   +1.55276374
 C   +4.31775144   +3.62013474   +2.63394065
 O   +3.21875496   +1.43548630   +0.15602888
 H   +5.36414671   +3.81259658   +2.83579277
 H   -0.92157150   +0.01793662   -0.56187390
 H   +3.85849418   +3.19523049   +3.52214699
 H   +3.83060508   +4.55643622   +2.37088798
 H   +1.11558003   +2.52950064   +1.02443593
 H   +1.89006999   +3.42232156   +2.32707050
 H   +2.50885656   +1.18087168   +3.60340954
 H   +0.70395512   +1.67715182   +3.45124126
 H   +2.09164119   -0.29240305   +1.55112634
 H   +1.14649371   -0.72570974   +2.96898450
 H   -0.94228542   +0.03280346   +1.86006636
 H   +0.92642105   -0.01482979   -0.55665305
 H   +3.22302309   +1.00653415   +4.17670580
22
 * E =  +9.691 kcal/mol ; (61) 121_176_067_089_006
 C   +0.00000000   +0.00000000   +0.00000000
 C   +0.00000000   +0.00000000   +1.32414878
 C   +1.22706543   +0.00000000   +2.17188829
 C   +1.29095296   +1.19465786   +3.08357713
 C   +2.44178606   +1.23997284   +4.05891926
 C   +3.74411184   +1.40747283   +3.31587741
 O   +4.18550854   +2.64287518   +3.05543328
 C   +3.53647674   +3.78579890   +3.56459299
 O   +4.36506134   +0.47140707   +2.90247400
 H   +4.04901045   +4.63308586   +3.12632380
 H   -0.91964441   -0.00105847   -0.56436662
 H   +3.62447907   +3.84118122   +4.64714235
 H   +2.48869611   +3.81943632   +3.27711897
 H   +2.28451140   +2.02493416   +4.79352260
 H   +2.51270763   +0.29133372   +4.58324488
 H   +0.22280107   +1.09846437   +3.86086560
 H   +1.10047052   +2.13576712   +2.57290003
 H   +2.11877765   -0.03299072   +1.54300342
 H   +1.25708697   -0.90468023   +2.78311887
 H   -0.94545874   +0.00418793   +1.85413819
 H   +0.92271576   -0.00516238   -0.56310442
 H   -0.50878204   +0.98805651   +4.44144371
22
 * E =  +9.693 kcal/mol ; (62) 117_177_297_178_000
 C   +0.00000000   +0.00000000   +0.00000000
 C   +0.00000000   +0.00000000   +1.32429848
 C   +1.22241430   +0.00000000   +2.17814269
 C   +1.31838345   +1.23709298   +3.02857997
 C   +2.46599980   +1.33923802   +3.98817418
 C   +2.47315569   +0.27141981   +5.05310147
 O   +3.49645714   +0.27290206   +5.91663400
 C   +4.53111305   +1.22563234   +5.83934202
 O   +1.62176727   -0.55922792   +5.16936397
 H   +5.18802640   +1.01351364   +6.67355915
 H   -0.91912361   +0.00156430   -0.56518104
 H   +4.15323038   +2.24061183   +5.93709535
 H   +5.09479226   +1.13174259   +4.91384661
 H   +3.41673343   +1.29849318   +3.44828037
 H   +2.45444018   +2.31054579   +4.48346414
 H   +0.20341928   +1.24674844   +3.80093315
 H   +1.17598888   +2.15357544   +2.46324515
 H   +2.10990025   -0.07204856   +1.54159785
 H   +1.21955055   -0.87376526   +2.82858819
 H   -0.94460584   +0.00912381   +1.85483592
 H   +0.92262989   -0.00973986   -0.56384941
 H   -0.54578347   +1.26420795   +4.32930927
22
 * E =  +9.850 kcal/mol ; (63) 112_048_171_172_357
 C   +0.00000000   +0.00000000   +0.00000000
 C   +0.00000000   +0.00000000   +1.32418319
 C   +1.22839262   +0.00000000   +2.17294461
 C   +1.44352729   +1.27062895   +2.95259217
 C   +0.27240651   +1.81260770   +3.71105870
 C   +0.66220890   +2.95758679   +4.60957313
 O   -0.32061721   +3.62684058   +5.22321572
 C   -1.67608608   +3.32122915   +4.99119758
 O   +1.79615983   +3.27510101   +4.81470654
 H   -2.23894191   +3.94813478   +5.67136208
 H   -0.91894474   +0.00267681   -0.56558984
 H   -1.89866676   +2.27860440   +5.20573310
 H   -1.96786519   +3.55697493   +3.97025128
 H   -0.51516423   +2.13058807   +3.02749935
 H   -0.17888242   +1.03540904   +4.33777913
 H   +1.69497519   +2.20422809   +2.02602095
 H   +2.36256263   +1.29033785   +3.52728220
 H   +2.10224311   -0.18472856   +1.55017232
 H   +1.17303873   -0.83482868   +2.88007797
 H   -0.95093102   -0.00076223   +1.84450957
 H   +0.92295378   -0.00177510   -0.56246329
 H   +1.80804158   +2.83698495   +1.35770949
22
 * E =  +9.873 kcal/mol ; (64) 109_048_061_090_006
 C   +0.00000000   +0.00000000   +0.00000000
 C   +0.00000000   +0.00000000   +1.32442980
 C   +1.23524155   +0.00000000   +2.16330781
 C   +1.49143213   +1.30122200   +2.88166290
 C   +0.33994965   +1.93264705   +3.62632131
 C   -0.13831087   +1.00665575   +4.71623786
 O   +0.40086093   +1.10418558   +5.93569756
 C   +1.31795897   +2.12432587   +6.25987730
 O   -0.94337372   +0.14480364   +4.50682746
 H   +1.65783000   +1.90437698   +7.26424366
 H   -0.92043440   -0.00309535   -0.56330252
 H   +0.84091201   +3.10153877   +6.25411087
 H   +2.17366407   +2.12714616   +5.58933705
 H   +0.62984638   +2.90750632   +4.00702718
 H   -0.50008967   +2.06991036   +2.95164398
 H   +1.77040595   +2.18116943   +1.92425120
 H   +2.42320631   +1.29421209   +3.44252798
 H   +2.10335557   -0.23141218   +1.54744025
 H   +1.15406471   -0.79804695   +2.90706600
 H   -0.93882608   -0.01028498   +1.86306086
 H   +0.92138193   -0.00031369   -0.56586561
 H   +1.94565278   +2.79884088   +1.24580787
22
 * E =  +9.988 kcal/mol ; (65) 248_294_300_177_000
 C   +0.00000000   +0.00000000   +0.00000000
 C   +0.00000000   +0.00000000   +1.32511032
 C   +1.22616200   +0.00000000   +2.17980337
 C   +1.38296404   -1.29446737   +2.93618254
 C   +0.37177220   -1.64970371   +3.98664200
 C   +0.28179533   -0.65554310   +5.11615540
 O   -0.64342129   -0.87848381   +6.05839187
 C   -1.50617121   -1.99057978   +6.00222956
 O   +0.98905086   +0.30257594   +5.21824158
 H   -2.10232076   -1.94527577   +6.90501533
 H   -0.91857114   -0.00235538   -0.56633129
 H   -0.95587041   -2.92837223   +5.98935207
 H   -2.16765238   -1.94196826   +5.14008213
 H   -0.61970919   -1.77038637   +3.54201307
 H   +0.61335215   -2.62341708   +4.41452127
 H   +2.55639326   -1.19242089   +3.59639835
 H   +1.58732371   -2.13758820   +2.28233081
 H   +1.19155292   +0.82493420   +2.88847371
 H   +2.10235498   +0.14612045   +1.55038474
 H   -0.95179750   -0.00202583   +1.84417207
 H   +0.92342881   +0.01248319   -0.56207279
 H   +3.35506976   -1.14120020   +4.04587603
22
 * E =  +9.989 kcal/mol ; (66) 351_287_297_178_359
 C   +0.00000000   +0.00000000   +0.00000000
 C   +0.00000000   +0.00000000   +1.32568997
 C   +1.19676353   +0.00000000   +2.22691717
 C   +2.51453277   -0.20152410   +1.54018032
 C   +2.83904357   -1.57651364   +1.03531522
 C   +2.94510072   -2.61544151   +2.12307644
 O   +3.19143302   -3.87560415   +1.74342049
 C   +3.32712389   -4.22680326   +0.38604015
 O   +2.82874526   -2.37691542   +3.28865117
 H   +3.54911572   -5.28659450   +0.37812029
 H   -0.92365630   +0.01477799   -0.55712235
 H   +4.14566639   -3.69133188   -0.08920864
 H   +2.40622148   -4.05445082   -0.16633701
 H   +2.08004386   -1.90591390   +0.32066391
 H   +3.77981430   -1.56432608   +0.48447513
 H   +3.45656580   +0.07416957   +2.47428739
 H   +2.74524459   +0.56772464   +0.80862853
 H   +1.06866573   -0.76111336   +2.99467026
 H   +1.21406878   +0.95136257   +2.76316283
 H   -0.95395705   +0.01134901   +1.83925136
 H   +0.91387474   -0.00132473   -0.57699113
 H   +4.09674904   +0.28189529   +3.09202780
22
 * E = +10.011 kcal/mol ; (67) 241_183_070_089_007
 C   +0.00000000   +0.00000000   +0.00000000
 C   +0.00000000   +0.00000000   +1.32383382
 C   +1.22242228   +0.00000000   +2.17655318
 C   +1.30853654   -1.21084041   +3.06466672
 C   +2.47659222   -1.26169300   +4.02003923
 C   +2.30437030   -0.22071554   +5.09718362
 O   +1.64141433   -0.54873538   +6.21198399
 C   +1.22492987   -1.87116588   +6.46553260
 O   +2.68719226   +0.90548079   +4.96185527
 H   +0.64691450   -1.82582218   +7.38016066
 H   -0.91939838   +0.00305734   -0.56460685
 H   +2.07557947   -2.53142159   +6.61766056
 H   +0.59554752   -2.25883564   +5.66837792
 H   +2.58666404   -2.26228216   +4.42909956
 H   +3.39127142   -1.00724069   +3.49260195
 H   +1.51670506   -2.23373563   +2.24599952
 H   +0.35804689   -1.48958525   +3.51519593
 H   +1.23429322   +0.89485073   +2.80609199
 H   +2.11541515   +0.05900777   +1.55396553
 H   -0.94761810   -0.00119722   +1.85045321
 H   +0.92248260   +0.00081482   -0.56322737
 H   +1.72198271   -2.94317067   +1.67102395
22
 * E = +10.082 kcal/mol ; (68) 019_059_172_173_357
 C   +0.00000000   +0.00000000   +0.00000000
 C   +0.00000000   +0.00000000   +1.32502960
 C   +1.19617380   +0.00000000   +2.22536139
 C   +2.50794006   +0.43614702   +1.64149696
 C   +2.57170895   +1.81923814   +1.07003977
 C   +3.97440048   +2.20739119   +0.68405279
 O   +4.14039578   +3.36802547   +0.03878195
 C   +3.04056870   +4.17307152   -0.31819446
 O   +4.93543160   +1.54563811   +0.94462709
 H   +3.46252859   +5.07630683   -0.74074611
 H   -0.92608072   -0.03350109   -0.55268087
 H   +2.43421771   +4.43566253   +0.54539342
 H   +2.41930133   +3.68840519   -1.06795916
 H   +1.90245609   +1.93043523   +0.21919866
 H   +2.21560957   +2.54603009   +1.80845180
 H   +2.81134395   -0.39050970   +0.61550910
 H   +3.35740584   +0.21869132   +2.27905670
 H   +1.30847971   -1.00232901   +2.64314951
 H   +0.97411834   +0.63699471   +3.08857597
 H   -0.95364952   -0.03657718   +1.83720999
 H   +0.91191611   +0.00963209   -0.57830190
 H   +3.03466849   -0.93179248   -0.09484665
22
 * E = +10.123 kcal/mol ; (69) 239_187_299_178_000
 C   +0.00000000   +0.00000000   +0.00000000
 C   +0.00000000   +0.00000000   +1.32391114
 C   +1.22543444   +0.00000000   +2.17342909
 C   +1.29394159   -1.19621404   +3.08245565
 C   +2.38876723   -1.23841853   +4.10611659
 C   +3.77899673   -1.22607695   +3.52221931
 O   +4.80506347   -1.22385737   +4.38320723
 C   +4.60379484   -1.23435105   +5.77715560
 O   +4.01068394   -1.22333141   +2.34991818
 H   +5.59324021   -1.26008884   +6.21629073
 H   -0.91968878   -0.00175329   -0.56450801
 H   +4.05243367   -2.11492404   +6.09845170
 H   +4.09089675   -0.33695387   +6.11585846
 H   +2.29603373   -0.39347520   +4.79523221
 H   +2.28867129   -2.13088759   +4.72446638
 H   +1.51367159   -2.26257541   +2.27360775
 H   +0.33289854   -1.46663925   +3.51219085
 H   +1.22763120   +0.90462145   +2.79416403
 H   +2.11787540   +0.04319601   +1.55442068
 H   -0.94810643   -0.00684156   +1.85047501
 H   +0.92330540   -0.00133250   -0.56144427
 H   +1.67381094   -2.98960401   +1.74224718
22
 * E = +10.310 kcal/mol ; (70) 248_270_057_086_006
 C   +0.00000000   +0.00000000   +0.00000000
 C   +0.00000000   +0.00000000   +1.32524212
 C   +1.24202028   +0.00000000   +2.15916333
 C   +1.43594578   -1.29353779   +2.91644923
 C   +0.84326050   -1.39649179   +4.30270112
 C   -0.64400921   -1.14659768   +4.29451793
 O   -1.47311332   -2.16594369   +4.05179240
 C   -1.00145142   -3.48891066   +3.92786074
 O   -1.10208475   -0.05073505   +4.44781921
 H   -1.86258707   -4.08180503   +3.64613980
 H   -0.92070370   -0.00304156   -0.56266813
 H   -0.61186874   -3.85837472   +4.87356564
 H   -0.24356471   -3.57677300   +3.15431375
 H   +1.09185113   -2.35782932   +4.74451286
 H   +1.26438543   -0.61551716   +4.92956864
 H   +2.71770138   -1.37629285   +3.14205227
 H   +1.27436028   -2.16981986   +2.29386005
 H   +1.21029425   +0.82809999   +2.86773284
 H   +2.10174652   +0.16049278   +1.50880651
 H   -0.94275341   +0.00202377   +1.85611546
 H   +0.92146034   +0.01301339   -0.56584511
 H   +3.65274674   -1.40557715   +3.32700871
22
 * E = +10.710 kcal/mol ; (71) 355_181_300_261_356
 C   +0.00000000   +0.00000000   +0.00000000
 C   +0.00000000   +0.00000000   +1.32492031
 C   +1.19548708   +0.00000000   +2.21871107
 C   +2.51533459   -0.12805708   +1.52388096
 C   +3.74923773   -0.16732475   +2.39559926
 C   +3.89180307   +1.07856287   +3.23474954
 O   +4.71696653   +2.04739427   +2.83284363
 C   +5.52615193   +1.91732290   +1.68471899
 O   +3.26147238   +1.23501752   +4.24114451
 H   +6.00959292   +2.87825317   +1.55993609
 H   -0.92574962   +0.00740686   -0.55368542
 H   +4.93611208   +1.70069778   +0.79854180
 H   +6.28834808   +1.15409082   +1.82517893
 H   +3.65406705   -0.98841153   +3.10623649
 H   +4.62716768   -0.36067325   +1.78801496
 H   +2.61847533   +0.98254177   +0.77131648
 H   +2.53301596   -0.90439199   +0.76395453
 H   +1.09598635   -0.82033677   +2.93774689
 H   +1.18309035   +0.89894817   +2.83667512
 H   -0.95138707   +0.01141905   +1.84161923
 H   +0.91023405   +0.00390279   -0.58081045
 H   +2.66754603   +1.77662419   +0.28920677
22
 * E = +11.156 kcal/mol ; (72) 013_064_075_091_006
 C   +0.00000000   +0.00000000   +0.00000000
 C   +0.00000000   +0.00000000   +1.32460463
 C   +1.18866828   +0.00000000   +2.23246307
 C   +2.52122291   +0.30428789   +1.61252830
 C   +2.69528417   +1.68433314   +1.01895655
 C   +2.87105440   +2.67117067   +2.14467521
 O   +4.10785289   +2.94793572   +2.57583925
 C   +5.25076281   +2.44041146   +1.92607811
 O   +1.93854070   +3.16470164   +2.71055884
 H   +6.09331701   +2.74808433   +2.53293318
 H   -0.92677519   -0.01668775   -0.55189257
 H   +5.36042885   +2.86216532   +0.92967573
 H   +5.23574231   +1.35474553   +1.86627533
 H   +3.52918678   +1.69959185   +0.32249778
 H   +1.79552707   +1.97729809   +0.48868976
 H   +2.73639439   -0.55776382   +0.60935307
 H   +3.34928626   +0.01406033   +2.25517888
 H   +1.23847371   -0.96681094   +2.73600994
 H   +1.00849152   +0.73307493   +3.02528543
 H   -0.95320222   -0.01429509   +1.83776452
 H   +0.90996277   +0.00912081   -0.58142167
 H   +2.95288248   -1.14181065   -0.07944121
22
 * E = +11.205 kcal/mol ; (73) 238_054_179_278_350
 C   +0.00000000   +0.00000000   +0.00000000
 C   +0.00000000   +0.00000000   +1.32410773
 C   +1.22520687   +0.00000000   +2.17618059
 C   +1.29009172   -1.17452398   +3.11712370
 C   +1.14926401   -2.53633275   +2.48614490
 C   +1.25809931   -3.63284090   +3.51105153
 O   +2.48127010   -4.02960067   +3.89145380
 C   +3.64131290   -3.59653038   +3.21966866
 O   +0.30308112   -4.12879779   +4.03091868
 H   +4.47466452   -3.99690435   +3.78368737
 H   -0.91938824   +0.00539737   -0.56455551
 H   +3.71921007   -2.51235945   +3.19513394
 H   +3.67967755   -3.99002740   +2.20618395
 H   +0.17020160   -2.63063217   +2.02630791
 H   +1.88835898   -2.65525433   +1.69146676
 H   +0.20992831   -1.03558211   +3.90449336
 H   +2.08915284   -1.09575541   +3.84928055
 H   +1.25613151   +0.91590388   +2.76827973
 H   +2.11245296   +0.01183361   +1.53697270
 H   -0.94463638   -0.00341228   +1.85562753
 H   +0.92247683   +0.00199828   -0.56410892
 H   -0.55759828   -0.90750855   +4.40795296
22
 * E = +11.249 kcal/mol ; (74) 122_176_182_278_350
 C   +0.00000000   +0.00000000   +0.00000000
 C   +0.00000000   +0.00000000   +1.32399056
 C   +1.22634281   +0.00000000   +2.17283238
 C   +1.28671125   +1.18380550   +3.09858165
 C   +2.44549548   +1.19706151   +4.06240994
 C   +2.39256507   +2.39037668   +4.97980567
 O   +2.86228467   +3.56108963   +4.52842825
 C   +3.57875676   +3.65454857   +3.31858493
 O   +1.90886145   +2.34248547   +6.07151988
 H   +3.75515501   +4.71155816   +3.16253984
 H   -0.91946233   +0.00063748   -0.56435879
 H   +3.01373680   +3.26245790   +2.47679926
 H   +4.53674553   +3.14381325   +3.38867607
 H   +2.40330646   +0.31726617   +4.69841566
 H   +3.38860319   +1.16005190   +3.51408990
 H   +0.19944450   +1.05414278   +3.87394912
 H   +1.08955354   +2.13232193   +2.60606054
 H   +2.11405501   -0.01997586   +1.53475167
 H   +1.25725026   -0.91230199   +2.77337123
 H   -0.94372982   +0.00568280   +1.85603733
 H   +0.92212679   -0.00560260   -0.56452353
 H   -0.53434601   +0.88786972   +4.41667275
22
 * E = +11.280 kcal/mol ; (75) 247_287_170_282_348
 C   +0.00000000   +0.00000000   +0.00000000
 C   +0.00000000   +0.00000000   +1.32510765
 C   +1.23017781   +0.00000000   +2.17416467
 C   +1.38030532   -1.28768208   +2.94212260
 C   +0.42901364   -1.49453717   +4.09627072
 C   +0.50982212   -2.89977614   +4.62733560
 O   -0.12052751   -3.86439055   +3.94307458
 C   -1.03578523   -3.56275787   +2.91315777
 O   +1.14827088   -3.19484184   +5.59360386
 H   -1.31327672   -4.51529160   +2.47905109
 H   -0.91904091   -0.01102935   -0.56525282
 H   -0.59764736   -2.93454922   +2.14111371
 H   -1.92778554   -3.08432969   +3.31244066
 H   +0.68968049   -0.83078334   +4.91619568
 H   -0.59207410   -1.25534210   +3.79579112
 H   +2.58590118   -1.20727819   +3.50313550
 H   +1.50153110   -2.15350790   +2.29637439
 H   +1.19707582   +0.83436760   +2.87706654
 H   +2.10499734   +0.14766443   +1.54310563
 H   -0.95030397   -0.01028992   +1.84653031
 H   +0.92260519   +0.01949170   -0.56300023
 H   +3.41664269   -1.08245054   +3.90265515
22
 * E = +11.640 kcal/mol ; (76) 354_178_180_279_349
 C   +0.00000000   +0.00000000   +0.00000000
 C   +0.00000000   +0.00000000   +1.32443734
 C   +1.20273684   +0.00000000   +2.21011732
 C   +2.52169719   -0.13102781   +1.51403316
 C   +3.72931600   -0.08636949   +2.41565239
 C   +5.00956598   -0.22673360   +1.63527907
 O   +5.40344717   -1.45677838   +1.27759817
 C   +4.78236432   -2.61229476   +1.79236329
 O   +5.65827101   +0.71357364   +1.28464284
 H   +5.24166746   -3.44687810   +1.27733377
 H   -0.92594450   +0.00486867   -0.55330556
 H   +3.71263130   -2.62325902   +1.59941198
 H   +4.96443577   -2.71361354   +2.86012238
 H   +3.77895518   +0.87549649   +2.91828587
 H   +3.65028172   -0.85490708   +3.18677050
 H   +2.63040431   +0.97549000   +0.75929162
 H   +2.54645329   -0.91674909   +0.76326349
 H   +1.09635017   -0.81136220   +2.93903855
 H   +1.20008695   +0.91500054   +2.80859209
 H   -0.94981324   +0.00831483   +1.84415566
 H   +0.91114118   +0.00810208   -0.57922574
 H   +2.69953798   +1.77804578   +0.30550936
22
 * E = +11.782 kcal/mol ; (77) 240_180_180_279_349
 C   +0.00000000   +0.00000000   +0.00000000
 C   +0.00000000   +0.00000000   +1.32354126
 C   +1.22484672   +0.00000000   +2.17398332
 C   +1.30593597   -1.19609732   +3.08217724
 C   +2.52211274   -1.25164386   +3.97151048
 C   +2.52158270   -2.48211867   +4.83934479
 O   +1.78498454   -2.46845331   +5.95933528
 C   +1.20594722   -1.28130386   +6.44955792
 O   +3.11064894   -3.47958891   +4.54653670
 H   +0.60973324   -1.57594769   +7.30425943
 H   -0.91963292   -0.00310700   -0.56410993
 H   +0.56046772   -0.80646917   +5.71488691
 H   +1.96862809   -0.57806003   +6.77716191
 H   +3.42001280   -1.30468359   +3.36213675
 H   +2.58879591   -0.34294085   +4.57282299
 H   +1.44049557   -2.24123270   +2.24733926
 H   +0.36880262   -1.43626666   +3.57864765
 H   +1.23770875   +0.90777312   +2.78793314
 H   +2.11440638   +0.04344413   +1.54493768
 H   -0.94671221   -0.00679964   +1.85144609
 H   +0.92207623   -0.00013360   -0.56374654
 H   +1.59054177   -2.91908932   +1.63925814
22
 * E = +12.195 kcal/mol ; (78) 093_068_335_267_006
 C   +0.00000000   +0.00000000   +0.00000000
 C   +0.00000000   +0.00000000   +1.32507192
 C   +1.25048041   +0.00000000   +2.15373826
 C   +1.73440166   +1.36957148   +2.56635316
 C   +0.92762971   +2.20028318   +3.54340178
 C   -0.54247819   +1.87100804   +3.59224621
 O   -1.39711715   +2.54400072   +2.82266917
 C   -0.94288500   +3.47864182   +1.86660216
 O   -0.96246199   +1.00585180   +4.30822593
 H   -1.82074710   +3.76903234   +1.30306758
 H   -0.92156489   +0.00579246   -0.56160883
 H   -0.21811362   +3.03211008   +1.19177004
 H   -0.52291817   +4.36089278   +2.34398677
 H   +1.28174743   +1.98715998   +4.54986223
 H   +1.10375389   +3.25847610   +3.35777485
 H   +1.83916803   +2.06344227   +1.42435415
 H   +2.78265639   +1.36834389   +2.85137479
 H   +2.04978997   -0.47746014   +1.59012842
 H   +1.08903689   -0.60031480   +3.05262806
 H   -0.94449472   -0.00056610   +1.85169023
 H   +0.92047003   -0.01170080   -0.56768330
 H   +1.95563766   +2.55226850   +0.64218665
22
 * E = +12.457 kcal/mol ; (79) 114_049_174_280_349
 C   +0.00000000   +0.00000000   +0.00000000
 C   +0.00000000   +0.00000000   +1.32385579
 C   +1.23167094   +0.00000000   +2.16729122
 C   +1.42012774   +1.25492562   +2.98071678
 C   +0.23380997   +1.72829119   +3.78403318
 C   +0.59604173   +2.89719175   +4.66015654
 O   +1.22429795   +2.64912183   +5.81877287
 C   +1.34650895   +1.34140453   +6.32832815
 O   +0.39085490   +4.03140654   +4.34547765
 H   +1.96130261   +1.42759419   +7.21571103
 H   -0.91941950   +0.00348755   -0.56451821
 H   +1.83346777   +0.67116064   +5.62431265
 H   +0.37657298   +0.93660195   +6.60935402
 H   -0.55286050   +2.07316708   +3.11938663
 H   -0.17357815   +0.90504079   +4.37523092
 H   +1.63310023   +2.21998309   +2.06898972
 H   +2.36138462   +1.26841204   +3.52394528
 H   +2.10655381   -0.14734473   +1.53584978
 H   +1.19565219   -0.85509505   +2.85144389
 H   -0.94883398   +0.00028818   +1.84683856
 H   +0.92242422   +0.00003240   -0.56334253
 H   +1.75252388   +2.85312628   +1.40766206
