22
 * E =  +0.000 kcal/mol ; (1) 119_297_292_170_180_080
 C   +0.00000000   +0.00000000   +0.00000000
 C   +0.00000000   +0.00000000   +1.32526056
 C   +1.22034254   +0.00000000   +2.18133941
 C   +1.31267857   +1.22897040   +3.08014279
 C   +1.41611719   +2.52830955   +2.30945704
 C   +2.71463400   +2.66860139   +1.58232233
 O   +2.68901532   +3.71430482   +0.73798043
 C   +3.83273517   +3.94863628   +0.00019261
 O   +3.68232577   +1.97499297   +1.72103750
 H   +3.82532486   +3.09103753   -1.03205623
 H   -0.91861693   +0.00167783   -0.56654960
 H   +4.75020238   +3.71507823   +0.52501429
 H   +3.77059578   +4.92764314   -0.45223702
 H   +0.61161091   +2.63041847   +1.58314921
 H   +1.33374761   +3.38778630   +2.97522826
 H   +2.17912812   +1.12861232   +3.73024012
 H   +0.43361071   +1.27718147   +3.72232361
 H   +2.11249495   -0.06530532   +1.56134312
 H   +1.21226783   -0.88669383   +2.81661186
 H   -0.95082111   +0.01059603   +1.84800113
 H   +0.92384427   -0.01070788   -0.56165160
 H   +3.76149429   +2.47979945   -1.73004889
22
 * E =  +0.068 kcal/mol ; (2) 120_297_290_172_177_280
 C   +0.00000000   +0.00000000   +0.00000000
 C   +0.00000000   +0.00000000   +1.32523818
 C   +1.21887828   +0.00000000   +2.18322436
 C   +1.29800269   +1.21832565   +3.09733674
 C   +1.40578393   +2.52771247   +2.34501201
 C   +2.72244347   +2.69606052   +1.65755779
 O   +2.71731920   +3.77641419   +0.85748780
 C   +3.89626742   +4.07541551   +0.20302029
 O   +3.68363502   +1.99147467   +1.78504412
 H   +4.69248235   +4.71301653   +1.07570883
 H   -0.91834682   +0.00000473   -0.56693283
 H   +3.69869114   +4.80084490   -0.57273205
 H   +4.47167181   +3.20476376   -0.08424610
 H   +0.61959044   +2.62879168   +1.59823852
 H   +1.29393141   +3.37870405   +3.01697729
 H   +2.15765237   +1.11309295   +3.75557180
 H   +0.41187096   +1.25492656   +3.73047894
 H   +2.11330973   -0.05084958   +1.56510118
 H   +1.21606553   -0.89452558   +2.80752565
 H   -0.95123627   +0.00897305   +1.84723199
 H   +0.92409445   -0.01087987   -0.56124678
 H   +5.19939042   +5.15662313   +1.71665162
22
 * E =  +0.299 kcal/mol ; (3) 120_295_178_175_180_080
 C   +0.00000000   +0.00000000   +0.00000000
 C   +0.00000000   +0.00000000   +1.32491504
 C   +1.21676637   +0.00000000   +2.18668769
 C   +1.28874997   +1.21050778   +3.10864119
 C   +1.43460625   +2.50700167   +2.34445740
 C   +1.45597869   +3.70256397   +3.23792973
 O   +1.68506372   +4.82835685   +2.53816253
 C   +1.73863618   +6.00817002   +3.25422737
 O   +1.28535301   +3.70220849   +4.42374099
 H   +2.96082269   +6.09294071   +3.80251910
 H   -0.91871180   -0.00060535   -0.56609577
 H   +1.07039544   +6.03562941   +4.10538317
 H   +1.68398577   +6.84269144   +2.57031190
 H   +2.34666542   +2.51876823   +1.74772271
 H   +0.62012220   +2.63864911   +1.63151289
 H   +2.12544537   +1.09995856   +3.79537541
 H   +0.39577314   +1.25903685   +3.73023645
 H   +2.10825008   -0.04767372   +1.56042598
 H   +1.21672425   -0.90081540   +2.80171626
 H   -0.94995704   +0.00776747   +1.84864203
 H   +0.92327441   -0.00730715   -0.56267746
 H   +3.82290276   +6.10539922   +4.15083700
22
 * E =  +0.314 kcal/mol ; (4) 120_295_178_174_178_279
 C   +0.00000000   +0.00000000   +0.00000000
 C   +0.00000000   +0.00000000   +1.32489464
 C   +1.21710894   +0.00000000   +2.18619584
 C   +1.29120442   +1.21186336   +3.10618032
 C   +1.43619899   +2.50730463   +2.34008623
 C   +1.45876025   +3.70378293   +3.23222177
 O   +1.70865965   +4.82625917   +2.53419025
 C   +1.71862533   +6.01234582   +3.24185937
 O   +1.28228421   +3.70527279   +4.41719040
 H   +0.44272217   +6.39432384   +3.40963441
 H   -0.91869323   +0.00020254   -0.56608800
 H   +2.16108363   +6.78699294   +2.63250529
 H   +2.09564907   +5.91707380   +4.25207202
 H   +2.34509928   +2.51725841   +1.73847274
 H   +0.61821347   +2.63972522   +1.63132530
 H   +2.12905287   +1.10120434   +3.79161326
 H   +0.39951806   +1.26264435   +3.72937891
 H   +2.10818008   -0.04969365   +1.55943533
 H   +1.21645228   -0.89982545   +2.80268791
 H   -0.94982362   +0.00873512   +1.84874917
 H   +0.92328494   -0.00779063   -0.56268390
 H   -0.45639025   +6.61713619   +3.49057336
22
 * E =  +0.332 kcal/mol ; (5) 118_178_290_168_179_080
 C   +0.00000000   +0.00000000   +0.00000000
 C   +0.00000000   +0.00000000   +1.32466318
 C   +1.21814836   +0.00000000   +2.18186913
 C   +1.30389675   +1.24094303   +3.05950111
 C   +2.50824131   +1.23035163   +3.97681323
 C   +2.40239810   +0.20568417   +5.06129977
 O   +3.57483337   +0.04716036   +5.69823328
 C   +3.60320210   -0.86485710   +6.73604880
 O   +1.41254248   -0.39557975   +5.36888066
 H   +3.71819094   -2.08812862   +6.19396726
 H   -0.91866009   +0.00443450   -0.56605273
 H   +2.68064062   -0.91674479   +7.29979571
 H   +4.51077608   -0.72760228   +7.30559118
 H   +3.43402972   +1.05516943   +3.43074458
 H   +2.63248613   +2.19433096   +4.47128154
 H   +0.40054955   +1.32176264   +3.66222996
 H   +1.34755047   +2.12635426   +2.42786054
 H   +2.10718651   -0.07081420   +1.55421873
 H   +1.20295950   -0.88004386   +2.82638170
 H   -0.94815360   +0.00930554   +1.85024587
 H   +0.92305925   -0.01040022   -0.56296310
 H   +3.80605166   -2.90813285   +5.76652744
22
 * E =  +0.334 kcal/mol ; (6) 118_178_290_168_177_280
 C   +0.00000000   +0.00000000   +0.00000000
 C   +0.00000000   +0.00000000   +1.32466481
 C   +1.21848032   +0.00000000   +2.18145737
 C   +1.30845411   +1.24336330   +3.05523822
 C   +2.51382029   +1.23243137   +3.97098236
 C   +2.40598352   +0.21337326   +5.06049894
 O   +3.58174726   +0.04611670   +5.68939354
 C   +3.59851529   -0.82528094   +6.76173474
 O   +1.41477305   -0.38382725   +5.37144508
 H   +3.11277776   -0.16439764   +7.82528701
 H   -0.91864634   +0.00559384   -0.56604770
 H   +4.62260355   -1.05210184   +7.02005623
 H   +2.92876027   -1.66839638   +6.65159802
 H   +3.43890024   +1.05454106   +3.42446225
 H   +2.64046249   +2.19705746   +4.46341296
 H   +0.40623114   +1.32849668   +3.65895292
 H   +1.35362850   +2.12654845   +2.42064076
 H   +2.10702455   -0.07534595   +1.55352738
 H   +1.20080570   -0.87772415   +2.82919173
 H   -0.94797718   +0.01078139   +1.85045913
 H   +0.92304043   -0.01108565   -0.56300128
 H   +2.77744364   +0.34158495   +8.52862942
22
 * E =  +0.369 kcal/mol ; (7) 117_301_082_204_182_280
 C   +0.00000000   +0.00000000   +0.00000000
 C   +0.00000000   +0.00000000   +1.32528911
 C   +1.22736415   +0.00000000   +2.17107608
 C   +1.35846587   +1.24365339   +3.04443511
 C   +1.40059338   +2.53043820   +2.24175081
 C   +0.04205450   +3.02280790   +1.85313294
 O   +0.09714988   +3.80832767   +0.76512322
 C   -1.09424660   +4.35245883   +0.32824067
 O   -0.97710204   +2.80919665   +2.44670770
 H   -1.73651037   +3.40632605   -0.37985337
 H   -0.91873864   +0.01525418   -0.56539516
 H   -0.88765411   +5.13661110   -0.38556563
 H   -1.78650178   +4.59247134   +1.12501372
 H   +1.84785219   +3.33258004   +2.83054675
 H   +2.00740639   +2.43206248   +1.34414705
 H   +2.26904843   +1.16140853   +3.63428241
 H   +0.52691912   +1.29816145   +3.74514816
 H   +2.10598480   -0.08847655   +1.53080005
 H   +1.22054321   -0.87643739   +2.82065819
 H   -0.94551236   +0.03192491   +1.85324607
 H   +0.92331769   -0.01728453   -0.56298042
 H   -2.13844323   +2.72768938   -0.86724456
22
 * E =  +0.470 kcal/mol ; (8) 118_300_083_204_183_080
 C   +0.00000000   +0.00000000   +0.00000000
 C   +0.00000000   +0.00000000   +1.32535908
 C   +1.22689485   +0.00000000   +2.17183112
 C   +1.35024507   +1.23374191   +3.06037659
 C   +1.39212727   +2.53027498   +2.27410716
 C   +0.03435432   +3.02662274   +1.88798253
 O   +0.09292966   +3.82820616   +0.81214789
 C   -1.09292506   +4.40211727   +0.39844557
 O   -0.98854513   +2.79457011   +2.46790562
 H   -1.33053757   +5.45986620   +1.19156047
 H   -0.91917226   +0.00548608   -0.56550536
 H   -1.95896897   +3.76932091   +0.54352659
 H   -0.96034394   +4.82060353   -0.58867831
 H   +1.83570481   +3.32647520   +2.87344900
 H   +2.00248924   +2.44453417   +1.37749119
 H   +2.25881956   +1.14651754   +3.65248100
 H   +0.51603868   +1.27662410   +3.75865291
 H   +2.10642512   -0.07643068   +1.53131016
 H   +1.22398680   -0.88425342   +2.81076768
 H   -0.94541062   +0.02434332   +1.85384664
 H   +0.92297607   -0.01284702   -0.56343730
 H   -1.44307618   +6.18565844   +1.76098866
22
 * E =  +0.535 kcal/mol ; (9) 119_176_068_191_181_280
 C   +0.00000000   +0.00000000   +0.00000000
 C   +0.00000000   +0.00000000   +1.32447248
 C   +1.22130341   +0.00000000   +2.17832027
 C   +1.30596748   +1.23547083   +3.06355383
 C   +2.48754312   +1.20530239   +4.00965116
 C   +3.80203363   +1.32774041   +3.30643269
 O   +4.82408328   +1.05891854   +4.13705843
 C   +6.09772073   +1.15176843   +3.60937795
 O   +3.96470539   +1.64663980   +2.16316265
 H   +6.33613712   +0.01800966   +2.93053763
 H   -0.91902215   +0.00649194   -0.56561986
 H   +6.81772819   +1.14898740   +4.41469518
 H   +6.20798515   +1.92855543   +2.86365333
 H   +2.43948454   +2.02842885   +4.72334044
 H   +2.50541830   +0.29479818   +4.60710284
 H   +0.39348836   +1.32564222   +3.65219802
 H   +1.36907460   +2.12152725   +2.43494444
 H   +2.10861343   -0.06022639   +1.55114444
 H   +1.21283000   -0.88810972   +2.81558660
 H   -0.94939650   +0.01144881   +1.84887159
 H   +0.92368123   -0.00614380   -0.56131366
 H   +6.45046501   -0.78803146   +2.48283171
22
 * E =  +0.551 kcal/mol ; (10) 118_175_069_192_183_080
 C   +0.00000000   +0.00000000   +0.00000000
 C   +0.00000000   +0.00000000   +1.32446630
 C   +1.22155760   +0.00000000   +2.17803014
 C   +1.31987228   +1.24674898   +3.04589168
 C   +2.49514554   +1.21309675   +3.99953471
 C   +3.81675385   +1.30562312   +3.30521287
 O   +4.82639855   +1.01958956   +4.14548193
 C   +6.10867895   +1.13196279   +3.64318418
 O   +3.99409188   +1.60706839   +2.15945395
 H   +6.44122349   +2.43264362   +3.67475347
 H   -0.91893387   +0.00873036   -0.56570791
 H   +6.19425013   +0.86728135   +2.59713992
 H   +6.79986015   +0.65254606   +4.32098298
 H   +2.45645854   +2.04928463   +4.69838412
 H   +2.49386906   +0.31326363   +4.61327848
 H   +0.40562595   +1.35875917   +3.62797460
 H   +1.39925389   +2.12254022   +2.40497106
 H   +2.10757450   -0.07728715   +1.55097194
 H   +1.20472056   -0.87921377   +2.82739779
 H   -0.94922815   +0.01443870   +1.84897904
 H   +0.92364892   -0.00803352   -0.56137276
 H   +6.62226295   +3.34263642   +3.72639266
22
 * E =  +0.651 kcal/mol ; (11) 121_178_182_184_182_081
 C   +0.00000000   +0.00000000   +0.00000000
 C   +0.00000000   +0.00000000   +1.32434909
 C   +1.22007879   +0.00000000   +2.17990628
 C   +1.28078283   +1.20547912   +3.10500211
 C   +2.50156853   +1.17387541   +3.99636806
 C   +2.55670523   +2.32819564   +4.94319897
 O   +3.69485458   +2.31313267   +5.65973279
 C   +3.85347716   +3.31238286   +6.60049999
 O   +1.71938854   +3.17401131   +5.07489433
 H   +3.15691612   +2.95399909   +7.69096162
 H   -0.91876137   +0.00504539   -0.56572928
 H   +3.41549236   +4.25928951   +6.31204112
 H   +4.88354013   +3.33556948   +6.92531484
 H   +2.53190158   +0.26226419   +4.59468395
 H   +3.42370671   +1.17284854   +3.41536669
 H   +0.38605797   +1.24724960   +3.72430443
 H   +1.28089498   +2.12148215   +2.51720179
 H   +2.10799512   -0.03273349   +1.54786948
 H   +1.23316865   -0.91001065   +2.78495120
 H   -0.94841582   +0.00985327   +1.84960223
 H   +0.92292941   -0.00664320   -0.56307475
 H   +2.66588962   +2.65406674   +8.42096317
22
 * E =  +0.670 kcal/mol ; (12) 121_178_181_182_179_279
 C   +0.00000000   +0.00000000   +0.00000000
 C   +0.00000000   +0.00000000   +1.32433539
 C   +1.22008584   +0.00000000   +2.17991136
 C   +1.28041382   +1.20461993   +3.10614066
 C   +2.49994415   +1.17103126   +3.99913108
 C   +2.56059660   +2.33024825   +4.93963981
 O   +3.67944378   +2.29116162   +5.68500158
 C   +3.86495407   +3.32080162   +6.58731385
 O   +1.73814192   +3.19346827   +5.05040739
 H   +4.34900120   +4.37187031   +5.90634683
 H   -0.91877044   +0.00502810   -0.56571569
 H   +4.65165448   +3.05219655   +7.27726198
 H   +2.94653172   +3.69376799   +7.02213780
 H   +2.52865125   +0.26016130   +4.59852812
 H   +3.42219364   +1.16758867   +3.41815302
 H   +0.38431668   +1.24630837   +3.72362710
 H   +1.28257802   +2.12146448   +2.51985497
 H   +2.10802113   -0.03147122   +1.54790002
 H   +1.23376212   -0.91078606   +2.78386004
 H   -0.94848749   +0.00963001   +1.84951432
 H   +0.92291139   -0.00609257   -0.56308150
 H   +4.68970788   +5.06464029   +5.38893589
22
 * E =  +0.680 kcal/mol ; (13) 359_182_291_170_179_080
 C   +0.00000000   +0.00000000   +0.00000000
 C   +0.00000000   +0.00000000   +1.32514903
 C   +1.19977031   +0.00000000   +2.21229962
 C   +2.53283000   -0.01709359   +1.49415170
 C   +3.70958489   -0.07595896   +2.44497067
 C   +3.89317562   +1.18320820   +3.23112471
 O   +4.79686618   +1.01539445   +4.21197522
 C   +5.06731086   +2.11364513   +5.00564436
 O   +3.34604465   +2.22947961   +3.02815006
 H   +4.08182629   +2.20680931   +5.91287835
 H   -0.92416755   +0.00340693   -0.55655120
 H   +5.02394406   +3.05769381   +4.47787195
 H   +5.95958830   +1.92370159   +5.58418236
 H   +3.62341284   -0.90446562   +3.14673915
 H   +4.64172944   -0.24216947   +1.90416560
 H   +2.62209446   +0.87138599   +0.87115431
 H   +2.57996775   -0.88054983   +0.83183529
 H   +1.13332094   -0.86412330   +2.87891348
 H   +1.15023457   +0.87692372   +2.85954622
 H   -0.95278441   +0.00349773   +1.84054516
 H   +0.91330283   +0.00234894   -0.57632431
 H   +3.37972239   +2.21821521   +6.52135029
22
 * E =  +0.707 kcal/mol ; (14) 000_178_069_191_183_080
 C   +0.00000000   +0.00000000   +0.00000000
 C   +0.00000000   +0.00000000   +1.32511644
 C   +1.19932773   +0.00000000   +2.21300408
 C   +2.53357245   +0.00718822   +1.49700773
 C   +3.70917441   +0.06071638   +2.44942620
 C   +3.88771546   -1.19915847   +3.23558296
 O   +4.78520288   -1.03136001   +4.22232602
 C   +5.09023441   -2.14206351   +4.98554593
 O   +3.33516925   -2.24280056   +3.03395595
 H   +5.97642064   -2.87581735   +4.29298138
 H   -0.92434018   -0.00259126   -0.55626603
 H   +4.25542757   -2.81484515   +5.13393387
 H   +5.62216724   -1.82946065   +5.87228883
 H   +4.64304705   +0.22013063   +1.90970246
 H   +3.62755770   +0.89123350   +3.14948436
 H   +2.58746293   +0.86898583   +0.83313751
 H   +2.61835617   -0.88321353   +0.87616762
 H   +1.14534214   -0.87369614   +2.86427118
 H   +1.13563949   +0.86786710   +2.87512413
 H   -0.95300781   -0.00193762   +1.84017505
 H   +0.91300708   -0.00369062   -0.57673111
 H   +6.59315272   -3.33960985   +3.77528621
22
 * E =  +0.725 kcal/mol ; (15) 000_180_180_181_181_081
 C   +0.00000000   +0.00000000   +0.00000000
 C   +0.00000000   +0.00000000   +1.32498570
 C   +1.20421493   +0.00000000   +2.20742762
 C   +2.53368128   +0.00092597   +1.48457025
 C   +3.69830518   -0.00020868   +2.44846426
 C   +5.02111713   +0.00629141   +1.75400509
 O   +6.03327417   -0.01445864   +2.63938869
 C   +7.31466265   +0.01461375   +2.12374538
 O   +5.19659833   +0.02270784   +0.56956623
 H   +7.59891017   +1.29140194   +1.82058204
 H   -0.92486746   +0.00008024   -0.55546303
 H   +7.41967601   -0.50592722   +1.18052293
 H   +8.01735434   -0.24816235   +2.90107834
 H   +3.67175573   +0.86695703   +3.10897917
 H   +3.67407601   -0.86961669   +3.10599234
 H   +2.60654610   +0.87170585   +0.83519448
 H   +2.60597258   -0.86811203   +0.83262173
 H   +1.14560748   -0.86763454   +2.86971763
 H   +1.14522112   +0.86713830   +2.87027562
 H   -0.95153214   -0.00008314   +1.84266766
 H   +0.91311788   +0.00051682   -0.57656189
 H   +7.74660996   +2.19045353   +1.63714401
22
 * E =  +0.945 kcal/mol ; (16) 350_290_289_173_178_280
 C   +0.00000000   +0.00000000   +0.00000000
 C   +0.00000000   +0.00000000   +1.32567279
 C   +1.19276392   +0.00000000   +2.22638548
 C   +2.53637316   -0.22666305   +1.55835078
 C   +2.72481627   -1.63965410   +1.04250945
 C   +2.90729341   -2.63617640   +2.14226794
 O   +2.92453116   -3.89041729   +1.65919023
 C   +3.13609489   -4.90866562   +2.56833892
 O   +3.03437710   -2.39133931   +3.30860310
 H   +4.45633321   -4.97172574   +2.80420994
 H   -0.92364428   +0.02200131   -0.55701066
 H   +2.89168127   -5.85432458   +2.10678461
 H   +2.70690235   -4.72150524   +3.54424878
 H   +1.88592721   -1.96659630   +0.43095658
 H   +3.60647203   -1.71447983   +0.40579771
 H   +3.32409701   -0.01283188   +2.27709848
 H   +2.66402003   +0.47378615   +0.73438822
 H   +1.05106234   -0.74712689   +3.00818790
 H   +1.21201099   +0.95575886   +2.75378327
 H   -0.95626786   +0.02005623   +1.83469516
 H   +0.91254103   -0.01602574   -0.57850006
 H   +5.37806426   -4.97729628   +2.92480070
22
 * E =  +1.070 kcal/mol ; (17) 247_298_294_166_179_080
 C   +0.00000000   +0.00000000   +0.00000000
 C   +0.00000000   +0.00000000   +1.32508739
 C   +1.22552132   +0.00000000   +2.17517620
 C   +1.42124373   -1.28632520   +2.97246155
 C   +0.31044560   -1.58521550   +3.95901237
 C   +0.24130524   -0.59317421   +5.07586683
 O   -0.91290086   -0.70254416   +5.75589732
 C   -1.08972918   +0.15255565   +6.82683259
 O   +1.09496051   +0.19332449   +5.37381580
 H   -1.47820967   +1.33889813   +6.33259290
 H   -0.91818322   -0.00200637   -0.56696354
 H   -0.17698138   +0.38047442   +7.36212948
 H   -1.92589215   -0.18800338   +7.41993661
 H   -0.66607328   -1.63901855   +3.48282732
 H   +0.46372362   -2.56068346   +4.42227889
 H   +2.36093408   -1.21886826   +3.51699084
 H   +1.50376568   -2.12499928   +2.28328203
 H   +1.19289319   +0.83832467   +2.87164241
 H   +2.09782726   +0.15250776   +1.54169089
 H   -0.95426091   +0.00239850   +1.83928643
 H   +0.92365810   +0.00921397   -0.56211529
 H   -1.75183419   +2.13263382   +5.93452245
22
 * E =  +1.088 kcal/mol ; (18) 247_298_293_166_177_280
 C   +0.00000000   +0.00000000   +0.00000000
 C   +0.00000000   +0.00000000   +1.32509150
 C   +1.22493559   +0.00000000   +2.17594595
 C   +1.41594801   -1.28224170   +2.98079977
 C   +0.30623844   -1.57072576   +3.97142786
 C   +0.24554795   -0.57652884   +5.08675713
 O   -0.90688907   -0.68139912   +5.77082039
 C   -1.05602961   +0.13747450   +6.87383526
 O   +1.09927243   +0.21338837   +5.37500621
 H   -0.38671108   -0.43041787   +7.89028729
 H   -0.91811995   -0.00274632   -0.56705771
 H   -2.09055270   +0.13086891   +7.18472426
 H   -0.58919516   +1.10798384   +6.76553353
 H   -0.67206646   -1.62278356   +3.49849440
 H   +0.45566620   -2.54460642   +4.43908073
 H   +2.35698030   -1.21577433   +3.52308860
 H   +1.49369547   -2.12533697   +2.29649774
 H   +1.19544203   +0.84222104   +2.86792562
 H   +2.09799395   +0.14631669   +1.54205757
 H   -0.95470107   +0.00093896   +1.83857594
 H   +0.92370208   +0.00923902   -0.56200546
 H   +0.08464323   -0.87019298   +8.55940697
22
 * E =  +1.106 kcal/mol ; (19) 111_296_301_310_178_280
 C   +0.00000000   +0.00000000   +0.00000000
 C   +0.00000000   +0.00000000   +1.32471123
 C   +1.22464503   +0.00000000   +2.17607473
 C   +1.42704477   +1.31571257   +2.92098820
 C   +1.66779000   +2.49099594   +1.98516957
 C   +2.86099107   +2.29784143   +1.10449444
 O   +3.94296280   +1.92495501   +1.81579427
 C   +5.10103709   +1.68058826   +1.10457603
 O   +2.89696969   +2.45101509   -0.08291100
 H   +4.98574636   +0.45257083   +0.57739263
 H   -0.91926512   +0.01689191   -0.56513298
 H   +5.93380749   +1.61362603   +1.78949167
 H   +5.23198618   +2.32277592   +0.24313921
 H   +0.82016292   +2.65688684   +1.32828191
 H   +1.82974001   +3.39957083   +2.56468600
 H   +2.27076584   +1.21810503   +3.60031357
 H   +0.54997332   +1.53375193   +3.52959115
 H   +2.10004025   -0.20904054   +1.55919409
 H   +1.16093111   -0.80634535   +2.90708976
 H   -0.94757257   +0.02655826   +1.85165987
 H   +0.92332467   -0.01069265   -0.56241752
 H   +4.84065609   -0.40703377   +0.25059381
22
 * E =  +1.181 kcal/mol ; (20) 121_295_179_301_179_279
 C   +0.00000000   +0.00000000   +0.00000000
 C   +0.00000000   +0.00000000   +1.32483477
 C   +1.21789964   +0.00000000   +2.18440163
 C   +1.28855646   +1.20925620   +3.10873340
 C   +1.42830549   +2.51273262   +2.33628587
 C   +1.48175117   +3.71061469   +3.22487813
 O   +0.37446042   +3.80449363   +3.98610973
 C   +0.31497798   +4.85909739   +4.87547797
 O   +2.37059264   +4.51176615   +3.28177991
 H   +1.02644117   +4.51230565   +5.95868636
 H   -0.91881994   -0.00140079   -0.56586830
 H   -0.69848372   +4.96687549   +5.23398986
 H   +0.80137443   +5.75911283   +4.52187734
 H   +2.33504445   +2.51700887   +1.73886960
 H   +0.58090796   +2.62635505   +1.66043878
 H   +2.13459773   +1.09495548   +3.78488339
 H   +0.39392721   +1.25332546   +3.72803789
 H   +2.10933387   -0.04300870   +1.55835837
 H   +1.22101151   -0.90120260   +2.79911293
 H   -0.94957254   +0.00710562   +1.84911558
 H   +0.92316963   -0.00597350   -0.56271655
 H   +1.52334884   +4.21548949   +6.68719335
22
 * E =  +1.195 kcal/mol ; (21) 349_289_177_174_180_081
 C   +0.00000000   +0.00000000   +0.00000000
 C   +0.00000000   +0.00000000   +1.32525774
 C   +1.19775447   +0.00000000   +2.22090766
 C   +2.53417908   -0.25980538   +1.55233127
 C   +2.68389553   -1.69278584   +1.08700735
 C   +3.96525311   -1.93064370   +0.35903776
 O   +4.12338203   -3.23399543   +0.06618342
 C   +5.27864348   -3.58754335   -0.60325874
 O   +4.76674980   -1.09640734   +0.04772323
 H   +6.26379582   -3.66619126   +0.30501229
 H   -0.92400228   +0.02557671   -0.55619573
 H   +5.62865792   -2.83743788   -1.30080018
 H   +5.17492277   -4.59232297   -0.98640375
 H   +2.64290006   -2.38774227   +1.92540215
 H   +1.86882225   -1.98636159   +0.42587784
 H   +3.33647829   -0.03176746   +2.25093147
 H   +2.67876753   +0.41555717   +0.71125970
 H   +1.03696569   -0.73214354   +3.01550112
 H   +1.23232466   +0.96526310   +2.72981621
 H   -0.95478115   +0.02440139   +1.83658799
 H   +0.91262026   -0.01625429   -0.57835610
 H   +6.90607566   -3.71458319   +0.97557567
22
 * E =  +1.201 kcal/mol ; (22) 011_070_184_186_182_080
 C   +0.00000000   +0.00000000   +0.00000000
 C   +0.00000000   +0.00000000   +1.32523573
 C   +1.19839105   +0.00000000   +2.22016767
 C   +2.53371171   +0.26123137   +1.54991824
 C   +2.68027422   +1.69393688   +1.08281181
 C   +3.95672528   +1.93196420   +0.34648077
 O   +4.12056383   +3.23755341   +0.06676586
 C   +5.24797841   +3.58538089   -0.65144565
 O   +4.75461652   +1.09735448   +0.02696341
 H   +4.99776151   +3.32947484   -1.94530204
 H   -0.92401920   -0.02551534   -0.55614691
 H   +6.11471123   +2.97604955   -0.42959729
 H   +5.38514637   +4.65585960   -0.60258622
 H   +1.86299504   +1.98482874   +0.42321571
 H   +2.63997934   +2.39037994   +1.92004571
 H   +2.67811329   -0.41414556   +0.70883362
 H   +3.33706291   +0.03442021   +2.24782094
 H   +1.23430863   -0.96559814   +2.72834455
 H   +1.03792067   +0.73160321   +3.01536670
 H   -0.95454585   -0.02471006   +1.83697246
 H   +0.91245978   +0.01717259   -0.57857449
 H   +4.76962828   +3.14159929   -2.82685589
22
 * E =  +1.207 kcal/mol ; (23) 120_179_300_314_179_280
 C   +0.00000000   +0.00000000   +0.00000000
 C   +0.00000000   +0.00000000   +1.32448873
 C   +1.21990420   +0.00000000   +2.17949705
 C   +1.28686661   +1.21627493   +3.09164072
 C   +2.52151871   +1.21743510   +3.97820727
 C   +2.61807502   +0.02761141   +4.88000409
 O   +1.44492926   -0.22599274   +5.48983822
 C   +1.40328977   -1.32093283   +6.33099925
 O   +3.60057900   -0.62852988   +5.07637721
 H   +1.24866904   -2.40451307   +5.55490842
 H   -0.91881204   +0.00340986   -0.56572935
 H   +0.50543674   -1.27711134   +6.93014240
 H   +2.33010462   -1.50537419   +6.85861212
 H   +3.43539849   +1.23799668   +3.39184616
 H   +2.52107709   +2.10321182   +4.61363688
 H   +0.39562187   +1.25486379   +3.71557965
 H   +1.29090008   +2.12194279   +2.48763484
 H   +2.10980636   -0.04382820   +1.55157068
 H   +1.22341602   -0.90323552   +2.79518863
 H   -0.94839166   +0.00749649   +1.84991723
 H   +0.92293986   -0.00845869   -0.56291398
 H   +1.13189839   -3.10832912   +4.95785431
22
 * E =  +1.234 kcal/mol ; (24) 243_064_287_320_181_274
 C   +0.00000000   +0.00000000   +0.00000000
 C   +0.00000000   +0.00000000   +1.32456830
 C   +1.22518773   +0.00000000   +2.17402984
 C   +1.35727745   -1.24574893   +3.04267092
 C   +1.52293358   -2.53081674   +2.24730251
 C   +0.30378094   -3.03896974   +1.54192772
 O   -0.80402698   -2.89511304   +2.29571843
 C   -1.99310628   -3.34022663   +1.75634397
 O   +0.29181378   -3.57929150   +0.47382286
 H   -2.49728415   -2.34991727   +1.00178616
 H   -0.91913587   -0.02011068   -0.56461877
 H   -2.72019302   -3.46765930   +2.54561523
 H   -1.88000233   -4.16484045   +1.06459168
 H   +2.30026687   -2.43646047   +1.49383010
 H   +1.82910097   -3.33476941   +2.91831409
 H   +0.49379727   -1.33561223   +3.69939283
 H   +2.22870542   -1.13138421   +3.68505194
 H   +1.21123877   +0.87288295   +2.82833765
 H   +2.10640848   +0.09628205   +1.53892216
 H   -0.94777562   -0.02333622   +1.85054109
 H   +0.92295924   +0.00877600   -0.56298024
 H   -2.83421170   -1.63924225   +0.50395591
22
 * E =  +1.235 kcal/mol ; (25) 120_295_180_306_182_081
 C   +0.00000000   +0.00000000   +0.00000000
 C   +0.00000000   +0.00000000   +1.32480681
 C   +1.21826604   +0.00000000   +2.18394849
 C   +1.29169348   +1.21196305   +3.10464646
 C   +1.43251247   +2.51201788   +2.32857629
 C   +1.49680144   +3.72150264   +3.20092514
 O   +0.45003347   +3.77416921   +4.04656179
 C   +0.37881012   +4.86973596   +4.88437410
 O   +2.35012619   +4.56212938   +3.18183125
 H   -0.13581568   +5.88758902   +4.17658193
 H   -0.91881779   -0.00036620   -0.56583230
 H   +1.34410780   +5.23960217   +5.20527266
 H   -0.34780671   +4.67856785   +5.66076528
 H   +2.33198282   +2.51086237   +1.72008845
 H   +0.58082186   +2.62909843   +1.65809622
 H   +2.13869404   +1.09725773   +3.77988048
 H   +0.39843820   +1.25894489   +3.72554962
 H   +2.10916655   -0.04616205   +1.55734822
 H   +1.22021309   -0.89968868   +2.80089431
 H   -0.94949236   +0.00815331   +1.84917879
 H   +0.92314782   -0.00647648   -0.56273488
 H   -0.50393090   +6.55625252   +3.64575645
22
 * E =  +1.252 kcal/mol ; (26) 246_298_186_183_182_080
 C   +0.00000000   +0.00000000   +0.00000000
 C   +0.00000000   +0.00000000   +1.32485618
 C   +1.22703808   +0.00000000   +2.17335759
 C   +1.41118286   -1.27131003   +2.99344966
 C   +0.29183873   -1.51028248   +3.98301808
 C   +0.55494997   -2.68169602   +4.87255092
 O   -0.48732426   -2.91186387   +5.69093525
 C   -0.35634873   -3.95199174   +6.59068937
 O   +1.54758168   -3.35138750   +4.88451027
 H   +0.36825221   -3.50017472   +7.62689405
 H   -0.91831445   -0.00519457   -0.56663043
 H   +0.22107568   -4.78670800   +6.21452340
 H   -1.32449939   -4.18427591   +7.00995215
 H   +0.13990738   -0.64260717   +4.62709052
 H   -0.66320993   -1.68194092   +3.48858378
 H   +2.35283476   -1.21788695   +3.53582190
 H   +1.49166589   -2.12800665   +2.32681489
 H   +1.19488643   +0.85543461   +2.85223223
 H   +2.09964948   +0.13915991   +1.53741727
 H   -0.95248121   -0.00086328   +1.84211152
 H   +0.92352269   +0.00828152   -0.56218285
 H   +0.86608034   -3.13397616   +8.32116220
22
 * E =  +1.273 kcal/mol ; (27) 241_183_301_312_178_279
 C   +0.00000000   +0.00000000   +0.00000000
 C   +0.00000000   +0.00000000   +1.32443236
 C   +1.22129726   +0.00000000   +2.17799128
 C   +1.30365206   -1.22794815   +3.07317515
 C   +2.50750295   -1.19540570   +4.00153418
 C   +3.81410763   -1.10737263   +3.27821569
 O   +3.88488491   -2.00830910   +2.28071444
 C   +5.03159629   -2.00055579   +1.51119946
 O   +4.71167027   -0.35649295   +3.53321937
 H   +4.89162900   -1.01541995   +0.61198928
 H   -0.91900167   -0.00500130   -0.56549379
 H   +5.07468781   -2.90681107   +0.92479409
 H   +5.92650077   -1.73321499   +2.05812167
 H   +2.46821781   -0.34662824   +4.67789353
 H   +2.53289105   -2.10035931   +4.60849046
 H   +1.34284748   -2.12278120   +2.45588968
 H   +0.40246403   -1.30076146   +3.68114432
 H   +1.22650937   +0.89471966   +2.80479715
 H   +2.10682953   +0.05567204   +1.54375789
 H   -0.94870202   -0.00979112   +1.84965778
 H   +0.92332941   +0.00890406   -0.56208242
 H   +4.72278682   -0.32405842   +0.01166475
22
 * E =  +1.280 kcal/mol ; (28) 246_298_186_182_179_279
 C   +0.00000000   +0.00000000   +0.00000000
 C   +0.00000000   +0.00000000   +1.32482243
 C   +1.22699581   +0.00000000   +2.17338400
 C   +1.40962782   -1.27027433   +2.99540822
 C   +0.28985748   -1.50635314   +3.98520498
 C   +0.54998289   -2.67875966   +4.87433502
 O   -0.47998745   -2.88775147   +5.71360425
 C   -0.37080641   -3.95692451   +6.58172329
 O   +1.53492109   -3.35984874   +4.87596718
 H   -0.69450597   -5.06656227   +5.89851954
 H   -0.91832940   -0.00573254   -0.56657154
 H   -1.12823161   -3.87263346   +7.34740464
 H   +0.63999865   -4.14591267   +6.91972248
 H   +0.13653812   -0.63692683   +4.62656253
 H   -0.66445642   -1.67996169   +3.48995412
 H   +2.35162318   -1.21697527   +3.53733385
 H   +1.48888893   -2.12846958   +2.33069105
 H   +1.19565891   +0.85661426   +2.85090287
 H   +2.09978625   +0.13730861   +1.53727889
 H   -0.95250442   -0.00137018   +1.84200598
 H   +0.92350261   +0.00822691   -0.56221081
 H   -0.93519986   -5.80069919   +5.38202634
22
 * E =  +1.284 kcal/mol ; (29) 112_295_299_315_182_080
 C   +0.00000000   +0.00000000   +0.00000000
 C   +0.00000000   +0.00000000   +1.32464082
 C   +1.22107671   +0.00000000   +2.18080118
 C   +1.39970710   +1.30258505   +2.95391386
 C   +1.64614689   +2.49653833   +2.04590737
 C   +2.87956006   +2.36786997   +1.20903682
 O   +3.92680177   +1.93055028   +1.93479527
 C   +5.13795112   +1.82046264   +1.28037081
 O   +2.96985030   +2.62178060   +0.04197827
 H   +5.67933852   +3.04739304   +1.22424530
 H   -0.91905504   +0.01533224   -0.56535523
 H   +5.05044305   +1.52901604   +0.24159780
 H   +5.82105245   +1.24462429   +1.88791211
 H   +0.81995714   +2.65411278   +1.35990140
 H   +1.75961630   +3.40076293   +2.64399770
 H   +2.23069016   +1.19953297   +3.64777336
 H   +0.50925144   +1.50014454   +3.55001744
 H   +2.10289159   -0.18268073   +1.56497425
 H   +1.16433895   -0.82259509   +2.89421919
 H   -0.94848988   +0.02435152   +1.85004236
 H   +0.92273577   -0.01069259   -0.56339653
 H   +6.01340805   +3.91493846   +1.22035570
22
 * E =  +1.292 kcal/mol ; (30) 120_179_299_317_183_080
 C   +0.00000000   +0.00000000   +0.00000000
 C   +0.00000000   +0.00000000   +1.32447236
 C   +1.21948368   +0.00000000   +2.18025783
 C   +1.28853837   +1.21809181   +3.08954366
 C   +2.51570936   +1.21361657   +3.98487134
 C   +2.59491093   +0.04608640   +4.91748384
 O   +1.40121381   -0.22395738   +5.47761549
 C   +1.36347719   -1.24982998   +6.40222614
 O   +3.58236009   -0.58175516   +5.17286790
 H   +1.81107393   -0.75734544   +7.56877990
 H   -0.91880786   +0.00530002   -0.56569456
 H   +2.04610056   -2.06114219   +6.18466438
 H   +0.33514519   -1.52089756   +6.59256733
 H   +3.43494430   +1.21184561   +3.40628291
 H   +2.52599000   +2.11063375   +4.60454547
 H   +0.39243384   +1.26638983   +3.70568099
 H   +1.30378965   +2.12120536   +2.48187734
 H   +2.10974098   -0.04733628   +1.55312448
 H   +1.22074492   -0.90081188   +2.79909877
 H   -0.94855530   +0.01005965   +1.84961807
 H   +0.92289601   -0.00939786   -0.56298779
 H   +2.11943764   -0.36476159   +8.35211010
22
 * E =  +1.371 kcal/mol ; (31) 122_297_181_068_183_081
 C   +0.00000000   +0.00000000   +0.00000000
 C   +0.00000000   +0.00000000   +1.32461015
 C   +1.21857069   +0.00000000   +2.18337935
 C   +1.28331354   +1.19400708   +3.12717216
 C   +1.37658642   +2.51660726   +2.37727478
 C   +1.45219399   +3.67941300   +3.30986412
 O   +2.61751329   +3.68550425   +3.98632060
 C   +2.79006931   +4.68314513   +4.92521710
 O   +0.60797007   +4.51276608   +3.47574481
 H   +2.15080437   +4.29992734   +6.04049974
 H   -0.91883689   -0.00141721   -0.56570547
 H   +2.31569750   +5.61977608   +4.66185683
 H   +3.83182163   +4.73196065   +5.20736148
 H   +2.26899598   +2.51485961   +1.75226246
 H   +0.51158667   +2.66252057   +1.73894561
 H   +2.14464173   +1.09130475   +3.78387440
 H   +0.39840551   +1.20231481   +3.76419961
 H   +2.10958115   -0.02387427   +1.55540301
 H   +1.23202541   -0.91062928   +2.78413226
 H   -0.94944363   +0.00628611   +1.84903598
 H   +0.92309316   -0.00442404   -0.56293146
 H   +1.69976683   +3.97898723   +6.78862659
22
 * E =  +1.399 kcal/mol ; (32) 359_182_301_314_179_280
 C   +0.00000000   +0.00000000   +0.00000000
 C   +0.00000000   +0.00000000   +1.32513070
 C   +1.20153343   +0.00000000   +2.21012754
 C   +2.53425926   -0.01651592   +1.49173719
 C   +3.71099594   -0.05975886   +2.45310345
 C   +3.76399205   +1.10155496   +3.39501590
 O   +3.56112253   +2.26677597   +2.75308983
 C   +3.55956025   +3.41233812   +3.52480667
 O   +3.97650704   +1.04357492   +4.57238939
 H   +2.35138581   +3.49258547   +4.10332074
 H   -0.92443604   +0.00141165   -0.55608049
 H   +3.61800617   +4.27707227   +2.88004372
 H   +4.24816618   +3.38129173   +4.35929596
 H   +3.69538291   -0.95626544   +3.06589531
 H   +4.64682324   -0.06264383   +1.89412057
 H   +2.61997816   +0.86260845   +0.85599733
 H   +2.59033964   -0.88813052   +0.84094293
 H   +1.13720672   -0.85824614   +2.88339595
 H   +1.14679808   +0.87765122   +2.86004579
 H   -0.95198157   +0.00224564   +1.84170680
 H   +0.91282914   +0.00030455   -0.57701623
 H   +1.49316738   +3.48768463   +4.46194708
22
 * E =  +1.411 kcal/mol ; (33) 240_184_300_316_182_080
 C   +0.00000000   +0.00000000   +0.00000000
 C   +0.00000000   +0.00000000   +1.32437083
 C   +1.21930631   +0.00000000   +2.18074817
 C   +1.29389596   -1.22237245   +3.08394521
 C   +2.48590843   -1.18470845   +4.02518674
 C   +3.81238429   -1.13466409   +3.33434944
 O   +3.86534674   -1.99416570   +2.30059777
 C   +5.06291638   -2.07569923   +1.61686897
 O   +4.73920552   -0.44220639   +3.64446799
 H   +5.88104809   -2.86624530   +2.33019075
 H   -0.91875618   -0.00459723   -0.56578190
 H   +5.59806242   -1.13674317   +1.55688796
 H   +4.90764110   -2.60444671   +0.68763160
 H   +2.44761170   -0.32405126   +4.68673065
 H   +2.49183071   -2.07651068   +4.65227185
 H   +1.33722411   -2.12137916   +2.47314038
 H   +0.38620628   -1.28996241   +3.68287700
 H   +1.22516574   +0.89849674   +2.80217027
 H   +2.10711511   +0.04768536   +1.54947283
 H   -0.94913757   -0.00901578   +1.84873687
 H   +0.92309513   +0.00782561   -0.56258829
 H   +6.40259948   -3.42587903   +2.85743024
22
 * E =  +1.430 kcal/mol ; (34) 122_296_181_060_179_280
 C   +0.00000000   +0.00000000   +0.00000000
 C   +0.00000000   +0.00000000   +1.32457564
 C   +1.21848496   +0.00000000   +2.18359543
 C   +1.28485240   +1.19480577   +3.12635828
 C   +1.38320833   +2.51541589   +2.37631379
 C   +1.46299463   +3.69327201   +3.29041476
 O   +2.54471835   +3.61861593   +4.08983438
 C   +2.74250308   +4.66231728   +4.97224175
 O   +0.68508070   +4.60233700   +3.34546519
 H   +3.30786274   +5.66880951   +4.28766071
 H   -0.91881813   -0.00120697   -0.56571898
 H   +3.48391836   +4.37549565   +5.70389112
 H   +1.82605014   +5.09260671   +5.35508498
 H   +2.27912188   +2.51134725   +1.75504490
 H   +0.52605022   +2.66380324   +1.72810181
 H   +2.14389683   +1.09048477   +3.78539514
 H   +0.39828267   +1.20456288   +3.76157607
 H   +2.10946776   -0.02491526   +1.55559989
 H   +1.23139732   -0.91047606   +2.78459779
 H   -0.94956629   +0.00613502   +1.84885518
 H   +0.92306074   -0.00406538   -0.56293905
 H   +3.70633274   +6.33055895   +3.77002916
22
 * E =  +1.499 kcal/mol ; (35) 249_305_307_295_176_281
 C   +0.00000000   +0.00000000   +0.00000000
 C   +0.00000000   +0.00000000   +1.32488144
 C   +1.22929021   +0.00000000   +2.17041781
 C   +1.44954225   -1.30607131   +2.92808299
 C   +0.26582697   -1.71878776   +3.79832463
 C   -0.14764163   -0.61690463   +4.71727169
 O   +0.81440213   -0.34348307   +5.61751979
 C   +0.58594884   +0.71889022   +6.47044754
 O   -1.18007047   -0.00967979   +4.67225019
 H   +0.86302819   +1.83726971   +5.78279038
 H   -0.91912986   -0.00301374   -0.56538338
 H   +1.30957929   +0.69552316   +7.27212481
 H   -0.45118737   +0.83776232   +6.75625614
 H   -0.59807644   -1.97083993   +3.19223826
 H   +0.53537785   -2.58896085   +4.39326650
 H   +2.33434578   -1.20926156   +3.55426899
 H   +1.64095493   -2.10848701   +2.21788395
 H   +1.16754996   +0.82028271   +2.88979397
 H   +2.10148696   +0.19683628   +1.54914055
 H   -0.94652479   +0.00274513   +1.85271050
 H   +0.92272262   +0.01049756   -0.56391393
 H   +1.07903450   +2.56603565   +5.24617874
22
 * E =  +1.505 kcal/mol ; (36) 359_182_299_317_182_081
 C   +0.00000000   +0.00000000   +0.00000000
 C   +0.00000000   +0.00000000   +1.32509524
 C   +1.20204951   +0.00000000   +2.20972536
 C   +2.53514353   -0.01531975   +1.49229747
 C   +3.71065529   -0.05284162   +2.45417696
 C   +3.78836229   +1.12365979   +3.37566753
 O   +3.54786439   +2.27743972   +2.72673710
 C   +3.64387495   +3.44141341   +3.46451196
 O   +4.04589099   +1.08359463   +4.54480719
 H   +4.94617470   +3.75701398   +3.55102162
 H   -0.92442965   -0.00002827   -0.55608558
 H   +3.33480336   +3.33266661   +4.49613851
 H   +3.19834243   +4.25369034   +2.90878020
 H   +3.68838525   -0.93876807   +3.08216924
 H   +4.64649927   -0.07570633   +1.89544362
 H   +2.61985130   +0.86157116   +0.85335590
 H   +2.59285039   -0.88920673   +0.84472402
 H   +1.13806907   -0.85893276   +2.88215192
 H   +1.14783027   +0.87703025   +2.86022477
 H   -0.95211350   +0.00026477   +1.84156698
 H   +0.91293674   +0.00119649   -0.57683103
 H   +5.85802755   +3.93384636   +3.57343763
22
 * E =  +1.505 kcal/mol ; (37) 120_178_180_057_179_280
 C   +0.00000000   +0.00000000   +0.00000000
 C   +0.00000000   +0.00000000   +1.32440456
 C   +1.22073530   +0.00000000   +2.17896375
 C   +1.29413777   +1.22038410   +3.08405734
 C   +2.52128496   +1.18387694   +3.98221595
 C   +2.62768858   +2.37215761   +4.88129455
 O   +1.52837637   +2.50682090   +5.64606855
 C   +1.51563374   +3.55851859   +6.54152292
 O   +3.55179460   +3.13165400   +4.94198937
 H   +2.22984621   +3.18325550   +7.61482450
 H   -0.91880433   +0.00512814   -0.56567100
 H   +0.51083285   +3.69839458   +6.91292156
 H   +2.02777814   +4.44323527   +6.18587451
 H   +2.48559837   +0.29416787   +4.61157174
 H   +3.43588176   +1.14480037   +3.39859499
 H   +0.39898129   +1.27852316   +3.70106305
 H   +1.31337754   +2.12095817   +2.47111071
 H   +2.10866342   -0.05013819   +1.54884854
 H   +1.22525866   -0.89797949   +2.80141093
 H   -0.94843752   +0.00967352   +1.84970638
 H   +0.92287492   -0.00799906   -0.56302365
 H   +2.72566755   +2.87093151   +8.33609947
22
 * E =  +1.512 kcal/mol ; (38) 120_178_180_062_182_081
 C   +0.00000000   +0.00000000   +0.00000000
 C   +0.00000000   +0.00000000   +1.32437070
 C   +1.22042449   +0.00000000   +2.17938302
 C   +1.28609130   +1.21327947   +3.09444298
 C   +2.51370181   +1.17663712   +3.99352064
 C   +2.59395542   +2.35762786   +4.90448156
 O   +1.53671098   +2.40303550   +5.73654846
 C   +1.47193615   +3.47272427   +6.60805342
 O   +3.46608829   +3.17826712   +4.92465102
 H   +0.97645843   +4.51722230   +5.92623076
 H   -0.91888541   +0.00444754   -0.56552136
 H   +2.43896867   +3.81922895   +6.94918877
 H   +0.73564179   +3.26685348   +7.37132644
 H   +2.48763359   +0.27644894   +4.60764556
 H   +3.42772624   +1.16205055   +3.40799152
 H   +0.39057025   +1.25980774   +3.71210263
 H   +1.30017696   +2.11974358   +2.49047509
 H   +2.10892673   -0.04013954   +1.54935729
 H   +1.22943964   -0.90297335   +2.79460959
 H   -0.94849171   +0.00863622   +1.84958475
 H   +0.92282102   -0.00640063   -0.56312397
 H   +0.62084197   +5.20303778   +5.40881563
22
 * E =  +1.526 kcal/mol ; (39) 242_070_291_317_180_079
 C   +0.00000000   +0.00000000   +0.00000000
 C   +0.00000000   +0.00000000   +1.32456738
 C   +1.22014943   +0.00000000   +2.18219888
 C   +1.34507361   -1.23513856   +3.06731718
 C   +1.64467545   -2.51355489   +2.30159929
 C   +0.54096930   -3.03375925   +1.43522554
 O   -0.65176584   -2.96592523   +2.05466926
 C   -1.74097647   -3.42698511   +1.34381245
 O   +0.67413866   -3.50666900   +0.34335220
 H   -1.74533074   -4.76861269   +1.42187708
 H   -0.91890632   -0.00361619   -0.56593898
 H   -1.68190029   -3.22975237   +0.28080695
 H   -2.64895324   -3.11977068   +1.84265292
 H   +2.51494250   -2.39880648   +1.66145780
 H   +1.87137226   -3.31277222   +3.00837372
 H   +0.43579614   -1.36730815   +3.65168746
 H   +2.15381497   -1.07469084   +3.77809590
 H   +1.19682678   +0.87977035   +2.82704385
 H   +2.10751639   +0.09345002   +1.55543408
 H   -0.94756171   -0.01425957   +1.85137560
 H   +0.92203962   -0.00188451   -0.56404559
 H   -1.71433669   -5.69195784   +1.51444452
22
 * E =  +1.533 kcal/mol ; (40) 119_178_180_300_181_080
 C   +0.00000000   +0.00000000   +0.00000000
 C   +0.00000000   +0.00000000   +1.32438672
 C   +1.22055459   +0.00000000   +2.17924070
 C   +1.29889963   +1.22555925   +3.07699050
 C   +2.51789230   +1.18206362   +3.98702505
 C   +2.61499165   +2.37293627   +4.88342693
 O   +2.70616200   +3.51207807   +4.17297859
 C   +2.81733846   +4.68810195   +4.88887446
 O   +2.60657342   +2.35885294   +6.08114848
 H   +4.09945531   +4.80994695   +5.26825873
 H   -0.91883508   +0.00486205   -0.56561182
 H   +2.27005639   +4.68628634   +5.82270094
 H   +2.64340582   +5.52518694   +4.22847214
 H   +2.49973866   +0.30362970   +4.62476970
 H   +3.42317006   +1.14353074   +3.38125556
 H   +0.39562475   +1.28906564   +3.68460173
 H   +1.33168024   +2.12501760   +2.46581075
 H   +2.10882589   -0.05380805   +1.54955914
 H   +1.22277206   -0.89578181   +2.80435878
 H   -0.94857692   +0.00921259   +1.84944850
 H   +0.92284075   -0.00810934   -0.56309307
 H   +4.99922245   +4.85017875   +5.49749522
22
 * E =  +1.634 kcal/mol ; (41) 248_301_301_105_184_079
 C   +0.00000000   +0.00000000   +0.00000000
 C   +0.00000000   +0.00000000   +1.32495160
 C   +1.22783039   +0.00000000   +2.17187079
 C   +1.43189452   -1.29301097   +2.95530369
 C   +0.28553853   -1.63666022   +3.90351711
 C   +0.08758888   -0.54041822   +4.89844263
 O   -0.99797683   +0.20367847   +4.61447068
 C   -1.22342831   +1.30545236   +5.41765004
 O   +0.80954927   -0.30032875   +5.82409173
 H   -0.40152166   +2.27596863   +4.98688981
 H   -0.91874171   -0.00424363   -0.56605762
 H   -0.93760409   +1.16076140   +6.45145051
 H   -2.22015944   +1.68090993   +5.23792787
 H   -0.63643627   -1.80463232   +3.35524856
 H   +0.53157264   -2.53909812   +4.45629609
 H   +2.34967888   -1.21723706   +3.53554627
 H   +1.55536464   -2.12073343   +2.25928714
 H   +1.18182010   +0.83778615   +2.87182548
 H   +2.10108379   +0.16902067   +1.54391607
 H   -0.94808730   +0.00094699   +1.84939814
 H   +0.92288998   +0.01053962   -0.56344096
 H   +0.18879698   +2.89970613   +4.63159927
22
 * E =  +1.685 kcal/mol ; (42) 248_305_307_297_180_080
 C   +0.00000000   +0.00000000   +0.00000000
 C   +0.00000000   +0.00000000   +1.32482205
 C   +1.22957708   +0.00000000   +2.17009935
 C   +1.44478144   -1.29971924   +2.93956577
 C   +0.25739126   -1.70301400   +3.80758025
 C   -0.16400351   -0.60210205   +4.72491738
 O   +0.81083444   -0.29366843   +5.59925581
 C   +0.54306732   +0.71542291   +6.50415637
 O   -1.21284931   -0.02267313   +4.69712765
 H   -0.19074851   +0.18371815   +7.49479727
 H   -0.91915095   -0.00361632   -0.56528860
 H   -0.08659211   +1.50243418   +6.10937734
 H   +1.46402258   +1.02420774   +6.97698397
 H   -0.60480062   -1.95952539   +3.20100605
 H   +0.52247864   -2.57017777   +4.40915449
 H   +2.32766066   -1.19912636   +3.56787130
 H   +1.63809191   -2.10786788   +2.23640867
 H   +1.17152742   +0.82604561   +2.88309641
 H   +2.10236370   +0.18940465   +1.54730048
 H   -0.94656134   +0.00164680   +1.85271382
 H   +0.92271328   +0.00986429   -0.56390341
 H   -0.68872920   -0.23637887   +8.15717290
22
 * E =  +1.708 kcal/mol ; (43) 359_180_179_053_178_280
 C   +0.00000000   +0.00000000   +0.00000000
 C   +0.00000000   +0.00000000   +1.32494768
 C   +1.20231754   +0.00000000   +2.20966411
 C   +2.53455786   -0.01472561   +1.49142318
 C   +3.69688193   -0.01362847   +2.47179759
 C   +5.03583342   -0.04581920   +1.80930066
 O   +5.15959981   +0.94043027   +0.90231577
 C   +6.37086996   +1.03503238   +0.24491984
 O   +5.91319783   -0.83029477   +2.03171868
 H   +7.22598966   +1.66802912   +1.06415213
 H   -0.92451968   +0.00034734   -0.55588850
 H   +6.26453578   +1.69255350   -0.60565284
 H   +6.84592024   +0.07973696   +0.06259709
 H   +3.65735824   +0.88752111   +3.08489794
 H   +3.65506801   -0.86978040   +3.13821117
 H   +2.61533272   +0.85117446   +0.83727597
 H   +2.59583240   -0.89840775   +0.85595717
 H   +1.13774336   -0.86041156   +2.87999225
 H   +1.15040637   +0.87472505   +2.86290237
 H   -0.95191854   +0.00067314   +1.84177262
 H   +0.91287569   -0.00050314   -0.57695754
 H   +7.77386220   +2.11729585   +1.66539008
22
 * E =  +1.799 kcal/mol ; (44) 247_301_301_107_181_280
 C   +0.00000000   +0.00000000   +0.00000000
 C   +0.00000000   +0.00000000   +1.32491339
 C   +1.22783459   +0.00000000   +2.17185670
 C   +1.41981753   -1.28119889   +2.97709348
 C   +0.26523572   -1.59972226   +3.92249208
 C   +0.06149613   -0.48543543   +4.89702848
 O   -1.04880721   +0.22387509   +4.62252220
 C   -1.32642471   +1.29393405   +5.45207693
 O   +0.80116568   -0.20374916   +5.79663301
 H   -1.90295431   +0.80276662   +6.56108995
 H   -0.91881005   -0.00363392   -0.56590218
 H   -2.08563055   +1.91174503   +4.99512971
 H   -0.44532407   +1.80215404   +5.82211037
 H   -0.65405023   -1.77683318   +3.37287999
 H   +0.50266900   -2.49218208   +4.49538149
 H   +2.33441246   -1.20068377   +3.56156560
 H   +1.54278760   -2.12092879   +2.29557927
 H   +1.18984162   +0.84795457   +2.85997879
 H   +2.10270580   +0.15319111   +1.54212222
 H   -0.94834802   +0.00203645   +1.84905663
 H   +0.92286314   +0.00830663   -0.56349079
 H   -2.30397559   +0.41262712   +7.30187973
22
 * E =  +1.978 kcal/mol ; (45) 351_289_170_296_178_279
 C   +0.00000000   +0.00000000   +0.00000000
 C   +0.00000000   +0.00000000   +1.32560905
 C   +1.19952418   +0.00000000   +2.21889328
 C   +2.53359339   -0.20339627   +1.52729785
 C   +2.71364175   -1.63290043   +1.02574535
 C   +3.90142306   -1.77882264   +0.13497355
 O   +3.75192075   -1.04950986   -0.98925827
 C   +4.80108907   -1.06216537   -1.88718833
 O   +4.87573851   -2.44238945   +0.34628096
 H   +5.71559494   -0.18390336   -1.44870265
 H   -0.92566062   +0.02272718   -0.55372546
 H   +4.46649496   -0.66245905   -2.83350436
 H   +5.33698860   -2.00198798   -1.92132051
 H   +2.84259048   -2.32042657   +1.85556111
 H   +1.83163305   -1.93613224   +0.46408095
 H   +3.33885445   +0.03137241   +2.22090956
 H   +2.62770407   +0.49230915   +0.69550111
 H   +1.06351319   -0.76274931   +2.98885395
 H   +1.21552130   +0.94855445   +2.75904465
 H   -0.95368015   +0.01956419   +1.83900235
 H   +0.91166166   -0.02126727   -0.58069062
 H   +6.30915492   +0.44388700   -1.10324933
22
 * E =  +2.034 kcal/mol ; (46) 352_289_169_300_181_081
 C   +0.00000000   +0.00000000   +0.00000000
 C   +0.00000000   +0.00000000   +1.32561261
 C   +1.19932738   +0.00000000   +2.21918302
 C   +2.53339967   -0.19985455   +1.52650828
 C   +2.71601210   -1.62757691   +1.02274674
 C   +3.89874194   -1.78115914   +0.12618635
 O   +3.77979911   -1.00140796   -0.96704642
 C   +4.80022590   -1.06676447   -1.89548791
 O   +4.84828072   -2.48693262   +0.31208434
 H   +4.59050981   -2.15635686   -2.65082529
 H   -0.92566563   +0.02166499   -0.55370735
 H   +5.77701345   -1.23661938   -1.46116071
 H   +4.71402132   -0.23561484   -2.58037983
 H   +2.84492596   -2.31778703   +1.85036109
 H   +1.83377540   -1.93216043   +0.46159232
 H   +3.33820385   +0.03571918   +2.22067884
 H   +2.62491478   +0.49785477   +0.69618758
 H   +1.06448546   -0.76491876   +2.98719851
 H   +1.21370593   +0.94725824   +2.76164279
 H   -0.95372573   +0.01872234   +1.83893579
 H   +0.91149800   -0.02133436   -0.58097905
 H   +4.39524428   -2.91628121   -3.14965946
22
 * E =  +2.178 kcal/mol ; (47) 247_298_185_300_178_279
 C   +0.00000000   +0.00000000   +0.00000000
 C   +0.00000000   +0.00000000   +1.32480657
 C   +1.22770264   +0.00000000   +2.17191110
 C   +1.41962132   -1.27902213   +2.97915777
 C   +0.29027648   -1.53201439   +3.96938960
 C   +0.54774251   -2.72053495   +4.83613098
 O   +0.68691612   -3.83909312   +4.10105385
 C   +0.96519598   -5.00640827   +4.78473760
 O   +0.62658631   -2.72033901   +6.03145189
 H   +2.28112816   -5.01356499   +5.04797041
 H   -0.91845608   -0.00422560   -0.56633303
 H   +0.81015506   -5.84986284   +4.12775541
 H   +0.50390059   -5.06287600   +5.76230006
 H   +0.14965759   -0.68147586   +4.63005953
 H   -0.64162250   -1.70700987   +3.43325182
 H   +2.36126152   -1.21035527   +3.52287878
 H   +1.50163738   -2.12871193   +2.30471589
 H   +1.19252478   +0.84766352   +2.85955662
 H   +2.09962781   +0.14790063   +1.53674174
 H   -0.95199770   +0.00072381   +1.84251174
 H   +0.92332981   +0.00807523   -0.56250488
 H   +3.19843076   -4.96933023   +5.19409925
22
 * E =  +2.212 kcal/mol ; (48) 246_298_185_303_181_080
 C   +0.00000000   +0.00000000   +0.00000000
 C   +0.00000000   +0.00000000   +1.32478494
 C   +1.22779289   +0.00000000   +2.17173087
 C   +1.41474583   -1.27545139   +2.98585928
 C   +0.28738879   -1.51589708   +3.98046736
 C   +0.53131539   -2.69752352   +4.86072185
 O   +0.73405488   -3.81337575   +4.13684657
 C   +0.94768109   -4.98345648   +4.83908553
 O   +0.55575329   -2.69277669   +6.05839470
 H   -0.25119805   -5.44395176   +5.23046974
 H   -0.91848544   -0.00398361   -0.56625345
 H   +1.48757004   -4.84535751   +5.76700461
 H   +1.32766315   -5.73853970   +4.16634006
 H   +0.14808306   -0.65880405   +4.63295619
 H   -0.64686410   -1.69251298   +3.44849969
 H   +2.35859209   -1.20805059   +3.52628039
 H   +1.49083880   -2.12925971   +2.31601294
 H   +1.19562140   +0.85137383   +2.85497557
 H   +2.10004456   +0.14170499   +1.53555755
 H   -0.95190144   +0.00121905   +1.84257901
 H   +0.92329294   +0.00765210   -0.56258977
 H   -1.10508159   -5.72311436   +5.46862462
22
 * E =  +2.215 kcal/mol ; (49) 351_289_178_069_183_081
 C   +0.00000000   +0.00000000   +0.00000000
 C   +0.00000000   +0.00000000   +1.32503571
 C   +1.19577081   +0.00000000   +2.22297248
 C   +2.53938323   -0.22299492   +1.55552918
 C   +2.71768931   -1.65551108   +1.06131749
 C   +4.02884181   -1.83741064   +0.37219606
 O   +5.05205387   -1.75971718   +1.24482264
 C   +6.32754842   -1.84845565   +0.72305811
 O   +4.19527954   -2.01318131   -0.80106662
 H   +6.65070659   -0.63701278   +0.24584643
 H   -0.92506034   +0.02475432   -0.55443398
 H   +6.40396699   -2.49764269   -0.13970587
 H   +7.02991409   -2.02566314   +1.52460252
 H   +2.67462693   -2.33444229   +1.91170399
 H   +1.93778081   -1.93112983   +0.36054230
 H   +3.33287819   +0.00109675   +2.26508466
 H   +2.66074412   +0.47244696   +0.72519253
 H   +1.04869779   -0.75202165   +3.00139540
 H   +1.21526472   +0.95501251   +2.75190377
 H   -0.95431560   +0.02387920   +1.83718105
 H   +0.91035805   -0.02244899   -0.58140289
 H   +6.82372365   +0.22521121   -0.05828334
22
 * E =  +2.223 kcal/mol ; (50) 349_290_299_318_179_279
 C   +0.00000000   +0.00000000   +0.00000000
 C   +0.00000000   +0.00000000   +1.32499368
 C   +1.19471762   +0.00000000   +2.22380621
 C   +2.53565240   -0.25817382   +1.56128611
 C   +2.70445578   -1.68989265   +1.07538415
 C   +2.63383421   -2.71372969   +2.16466642
 O   +3.29705186   -2.31713983   +3.26846726
 C   +3.27920107   -3.17720846   +4.34856831
 O   +2.08821589   -3.77722343   +2.09253675
 H   +2.10758796   -2.99161523   +4.97395204
 H   -0.92417961   +0.02183413   -0.55586398
 H   +4.02826421   -2.86911811   +5.06351924
 H   +3.26926690   -4.22480543   +4.07679829
 H   +1.94846062   -1.96620162   +0.34792484
 H   +3.67704816   -1.80643267   +0.59608999
 H   +3.32826461   -0.03311306   +2.27029265
 H   +2.67178228   +0.41793037   +0.71846235
 H   +1.03527134   -0.73206960   +3.01927515
 H   +1.22785734   +0.96348875   +2.73634239
 H   -0.95497938   +0.02101148   +1.83563906
 H   +0.91133379   -0.02008366   -0.57999869
 H   +1.28117255   -2.80095020   +5.35800371
22
 * E =  +2.224 kcal/mol ; (51) 245_297_184_062_182_081
 C   +0.00000000   +0.00000000   +0.00000000
 C   +0.00000000   +0.00000000   +1.32469423
 C   +1.22837302   +0.00000000   +2.17084742
 C   +1.39961729   -1.25852643   +3.01375244
 C   +0.28256201   -1.45021435   +4.03151365
 C   +0.50967196   -2.63736693   +4.90970509
 O   +1.63925168   -2.50254890   +5.62984021
 C   +1.98276464   -3.55388032   +6.45710425
 O   -0.19647368   -3.60103718   +4.99332221
 H   +2.58403803   -4.48257941   +5.69769103
 H   -0.91853902   -0.00520318   -0.56611213
 H   +1.13321087   -4.07365490   +6.88101364
 H   +2.74497341   -3.22831652   +7.15005410
 H   +0.21683427   -0.56740661   +4.66820124
 H   -0.67781882   -1.59720483   +3.54918082
 H   +2.34938894   -1.20617641   +3.54190021
 H   +1.44372142   -2.12727249   +2.35792947
 H   +1.20964742   +0.86585002   +2.83678376
 H   +2.10148370   +0.11640093   +1.53073860
 H   -0.95167894   -0.00095291   +1.84271172
 H   +0.92324519   +0.00724116   -0.56267526
 H   +3.00159404   -5.08589239   +5.12624954
22
 * E =  +2.300 kcal/mol ; (52) 114_057_277_139_181_080
 C   +0.00000000   +0.00000000   +0.00000000
 C   +0.00000000   +0.00000000   +1.32407337
 C   +1.22320072   +0.00000000   +2.17808126
 C   +1.41754659   +1.27626853   +2.99140362
 C   +0.23934579   +1.61277285   +3.89385247
 C   -0.85447891   +2.32594610   +3.16207921
 O   -2.07294121   +1.88279125   +3.52269791
 C   -3.15492885   +2.46537811   +2.89138066
 O   -0.69695966   +3.20877868   +2.36883811
 H   -3.26363517   +1.87880531   +1.68795252
 H   -0.92026357   +0.01201813   -0.56316404
 H   -3.01696612   +3.51332856   +2.65883622
 H   -4.06088585   +2.19951045   +3.41619508
 H   -0.16556843   +0.72991059   +4.38256027
 H   +0.56113859   +2.29536086   +4.68036766
 H   +1.59064683   +2.11921262   +2.32507442
 H   +2.30851956   +1.16210790   +3.60552773
 H   +2.10037116   -0.15635083   +1.55201004
 H   +1.17463119   -0.84546989   +2.86822943
 H   -0.95386340   -0.00101533   +1.84050195
 H   +0.92272837   -0.00621700   -0.56344981
 H   -3.28309252   +1.42575257   +0.87627048
22
 * E =  +2.345 kcal/mol ; (53) 011_070_063_037_177_279
 C   +0.00000000   +0.00000000   +0.00000000
 C   +0.00000000   +0.00000000   +1.32497383
 C   +1.19468572   +0.00000000   +2.22402155
 C   +2.53706114   +0.24840969   +1.56092791
 C   +2.71583063   +1.67658166   +1.07174275
 C   +2.70413182   +2.71350892   +2.15140280
 O   +3.30467088   +2.27977602   +3.27612002
 C   +3.40718299   +3.18369390   +4.31550529
 O   +2.24839485   +3.81661092   +2.05285171
 H   +4.45716712   +3.97908229   +4.05585867
 H   -0.92423011   -0.02215427   -0.55577429
 H   +3.67587248   +2.65820427   +5.22048995
 H   +2.57306021   +3.87020114   +4.38280322
 H   +3.67544526   +1.77746568   +0.56316915
 H   +1.94679147   +1.96608041   +0.36290486
 H   +2.66665674   -0.43072060   +0.71948831
 H   +3.32900730   +0.01797796   +2.26894688
 H   +1.22271557   -0.96047760   +2.74251584
 H   +1.03896455   +0.73815206   +3.01428070
 H   -0.95525154   -0.02176990   +1.83528796
 H   +0.91124754   +0.02034795   -0.57998427
 H   +5.19748718   +4.49494943   +3.83360690
22
 * E =  +2.409 kcal/mol ; (54) 249_299_074_049_179_279
 C   +0.00000000   +0.00000000   +0.00000000
 C   +0.00000000   +0.00000000   +1.32500607
 C   +1.23023357   +0.00000000   +2.17028233
 C   +1.47230508   -1.29609737   +2.93805675
 C   +0.37823853   -1.65731481   +3.93370647
 C   -0.89031194   -2.17065370   +3.32851256
 O   -0.64947616   -3.13950489   +2.43027400
 C   -1.74619056   -3.70830580   +1.81436601
 O   -1.99841185   -1.80532059   +3.60387113
 H   -2.25929004   -4.61845130   +2.65880928
 H   -0.91925297   +0.00211458   -0.56524883
 H   -1.41769304   -4.27883266   +0.95784614
 H   -2.56304054   -3.01728290   +1.65089255
 H   +0.74057229   -2.44814217   +4.59081626
 H   +0.11115874   -0.81133670   +4.56088768
 H   +2.40631606   -1.19614865   +3.48835183
 H   +1.60357752   -2.11815386   +2.23752173
 H   +1.17065651   +0.82248757   +2.88614211
 H   +2.09628261   +0.19556292   +1.53947684
 H   -0.95085409   +0.01074376   +1.84450874
 H   +0.92273873   +0.00384350   -0.56383323
 H   -2.56981688   -5.24163797   +3.27372507
22
 * E =  +6.645 kcal/mol ; (55) 116_296_289_171_358_288
 C   +0.00000000   +0.00000000   +0.00000000
 C   +0.00000000   +0.00000000   +1.32542163
 C   +1.22081304   +0.00000000   +2.18094961
 C   +1.35062022   +1.27044498   +3.01563455
 C   +1.52334351   +2.51648752   +2.17081934
 C   +2.87155792   +2.56603323   +1.51032333
 O   +3.07890338   +3.52311395   +0.57963716
 C   +2.09127114   +4.40660419   +0.21301807
 O   +3.77512179   +1.82928586   +1.76877563
 H   +1.17800368   +3.76362102   -0.51757658
 H   -0.91813123   +0.01113601   -0.56717036
 H   +2.50782235   +5.13073949   -0.47312194
 H   +1.53221900   +4.84415844   +1.03369020
 H   +0.74445497   +2.57749265   +1.41156944
 H   +1.42727045   +3.41356662   +2.78549414
 H   +2.20147807   +1.17318029   +3.68538859
 H   +0.46150534   +1.39254964   +3.63367047
 H   +2.11118394   -0.12248934   +1.56737715
 H   +1.18571736   -0.85240916   +2.86009072
 H   -0.95054199   +0.02135228   +1.84810899
 H   +0.92366058   -0.02133325   -0.56168021
 H   +0.56255877   +3.26509329   -1.02633741
22
 * E =  +6.758 kcal/mol ; (56) 118_296_287_179_000_070
 C   +0.00000000   +0.00000000   +0.00000000
 C   +0.00000000   +0.00000000   +1.32568476
 C   +1.21920304   +0.00000000   +2.18314604
 C   +1.31556932   +1.24100830   +3.06532153
 C   +1.45399541   +2.52631568   +2.27490083
 C   +2.81225932   +2.66846942   +1.65226396
 O   +3.04614373   +3.77371338   +0.90940307
 C   +2.08998663   +4.74334271   +0.72246496
 O   +3.69944814   +1.87907804   +1.77629539
 H   +1.89342224   +5.40332127   +1.86567190
 H   -0.91863199   +0.00013194   -0.56669163
 H   +1.10672957   +4.37892079   +0.44366775
 H   +2.48507156   +5.49844282   +0.05728730
 H   +0.69935032   +2.56307097   +1.48783230
 H   +1.27986997   +3.39861445   +2.90483421
 H   +2.16686744   +1.13898931   +3.73406306
 H   +0.42309818   +1.31377368   +3.68636489
 H   +2.11324093   -0.08031225   +1.56874133
 H   +1.19993820   -0.87694925   +2.83128928
 H   -0.95144231   +0.01204571   +1.84736367
 H   +0.92426388   -0.01705341   -0.56090471
 H   +1.78479562   +5.84843641   +2.68894134
22
 * E =  +6.940 kcal/mol ; (57) 120_295_178_174_000_288
 C   +0.00000000   +0.00000000   +0.00000000
 C   +0.00000000   +0.00000000   +1.32514685
 C   +1.21689315   +0.00000000   +2.18679183
 C   +1.28968568   +1.21207876   +3.10635288
 C   +1.43126889   +2.50655813   +2.33644580
 C   +1.44670664   +3.69919301   +3.24499105
 O   +1.69002218   +4.90708286   +2.68752578
 C   +1.92210867   +5.04950843   +1.34037698
 O   +1.25184113   +3.65118026   +4.42147975
 H   +3.12676425   +4.56287725   +1.04361333
 H   -0.91874516   -0.00211243   -0.56609905
 H   +2.00670411   +6.10226883   +1.10964155
 H   +1.24150370   +4.50683448   +0.69232790
 H   +2.33981620   +2.50335303   +1.73337088
 H   +0.60677101   +2.61746098   +1.62927727
 H   +2.12913407   +1.10772986   +3.79012427
 H   +0.39978491   +1.26424525   +3.73106892
 H   +2.10852784   -0.05134794   +1.56103480
 H   +1.21491376   -0.89889759   +2.80447837
 H   -0.94996600   +0.00779551   +1.84882533
 H   +0.92337759   -0.01052374   -0.56263043
 H   +3.98390414   +4.20579863   +0.87525554
22
 * E =  +7.098 kcal/mol ; (58) 121_296_180_185_002_072
 C   +0.00000000   +0.00000000   +0.00000000
 C   +0.00000000   +0.00000000   +1.32492388
 C   +1.21728488   +0.00000000   +2.18610941
 C   +1.28468851   +1.20269449   +3.11796710
 C   +1.39189567   +2.50888995   +2.36225064
 C   +1.45840475   +3.68628867   +3.28859474
 O   +1.45326546   +4.91959142   +2.73441362
 C   +1.35374031   +5.10285233   +1.37562006
 O   +1.52396948   +3.60310265   +4.47744075
 H   +0.11596783   +4.80615692   +0.97861061
 H   -0.91862107   +0.00011019   -0.56612594
 H   +1.99343363   +4.46608438   +0.77322860
 H   +1.44909362   +6.15732544   +1.15734713
 H   +2.28797019   +2.51144181   +1.73712970
 H   +0.55372862   +2.63289688   +1.67673599
 H   +2.13365834   +1.10591604   +3.79020661
 H   +0.40163645   +1.23178192   +3.75470399
 H   +2.10857116   -0.03899741   +1.55863051
 H   +1.22330407   -0.90504230   +2.79482072
 H   -0.94993063   +0.00860401   +1.84857247
 H   +0.92333438   -0.01004541   -0.56274884
 H   -0.76893169   +4.58417505   +0.74085199
22
 * E =  +7.200 kcal/mol ; (59) 119_178_289_170_000_288
 C   +0.00000000   +0.00000000   +0.00000000
 C   +0.00000000   +0.00000000   +1.32462675
 C   +1.21868127   +0.00000000   +2.18105373
 C   +1.29541549   +1.23241656   +3.07097522
 C   +2.50348741   +1.21991376   +3.98516653
 C   +2.37789835   +0.19581099   +5.07785505
 O   +3.46922808   -0.04814377   +5.83606978
 C   +4.66124313   +0.60303126   +5.62387882
 O   +1.37339565   -0.39764349   +5.32997238
 H   +5.22237644   +0.14713763   +4.50392644
 H   -0.91873883   +0.00102217   -0.56590361
 H   +5.35942935   +0.31423854   +6.39699205
 H   +4.58323970   +1.67526872   +5.47520301
 H   +3.41750902   +1.04037442   +3.41968693
 H   +2.62985771   +2.19248195   +4.46496736
 H   +0.39404315   +1.30079650   +3.67710644
 H   +1.33523478   +2.12416200   +2.44793328
 H   +2.10767215   -0.05783469   +1.55191718
 H   +1.20951692   -0.88610122   +2.81661829
 H   -0.94778476   +0.00504389   +1.85079409
 H   +0.92301824   -0.00747332   -0.56307260
 H   +5.58154787   -0.20069263   +3.70436493
22
 * E =  +7.416 kcal/mol ; (60) 117_178_287_180_001_070
 C   +0.00000000   +0.00000000   +0.00000000
 C   +0.00000000   +0.00000000   +1.32464998
 C   +1.21859961   +0.00000000   +2.18128256
 C   +1.31682060   +1.25621648   +3.03577295
 C   +2.51994466   +1.25367032   +3.95692383
 C   +2.35526466   +0.30609855   +5.11093928
 O   +3.37280439   +0.21529489   +5.99590008
 C   +4.51763669   +0.96637660   +5.87361905
 O   +1.38366671   -0.36021097   +5.30250284
 H   +4.24040139   +2.24711906   +6.12721229
 H   -0.91861166   +0.00523024   -0.56607375
 H   +4.96609679   +0.97406864   +4.88551987
 H   +5.20110192   +0.69102017   +6.66459530
 H   +3.42127160   +0.98577177   +3.40281199
 H   +2.70510843   +2.24744699   +4.36500282
 H   +0.41362360   +1.36132511   +3.63422102
 H   +1.37501759   +2.12717829   +2.38540038
 H   +2.10580952   -0.08733010   +1.55250084
 H   +1.19581789   -0.86770824   +2.84083420
 H   -0.94773921   +0.01071125   +1.85071678
 H   +0.92301205   -0.01218273   -0.56309952
 H   +4.00666960   +3.14009817   +6.31469995
22
 * E =  +7.454 kcal/mol ; (61) 118_176_070_189_000_072
 C   +0.00000000   +0.00000000   +0.00000000
 C   +0.00000000   +0.00000000   +1.32442865
 C   +1.22368892   +0.00000000   +2.17519222
 C   +1.32127892   +1.24702747   +3.04236015
 C   +2.50801495   +1.21919912   +3.98397676
 C   +3.81645987   +1.35887933   +3.25802455
 O   +4.94937673   +1.15440709   +3.96624740
 C   +4.92344790   +0.82593820   +5.30075424
 O   +3.91917827   +1.65708690   +2.10711682
 H   +4.49875591   -0.42965915   +5.44144257
 H   -0.91906304   +0.00765331   -0.56554688
 H   +4.24520596   +1.41491319   +5.90985615
 H   +5.93795790   +0.79664626   +5.67298296
 H   +2.44588872   +2.04032546   +4.70092865
 H   +2.51506664   +0.30245394   +4.57323151
 H   +0.41357553   +1.34940679   +3.63648098
 H   +1.38871734   +2.12417258   +2.40281184
 H   +2.10781231   -0.07555312   +1.54602206
 H   +1.20945388   -0.87928293   +2.82447212
 H   -0.94884757   +0.01314733   +1.84968502
 H   +0.92369920   -0.00723135   -0.56116758
 H   +4.19098504   -1.31953215   +5.49699597
22
 * E =  +7.581 kcal/mol ; (62) 359_182_290_171_000_288
 C   +0.00000000   +0.00000000   +0.00000000
 C   +0.00000000   +0.00000000   +1.32509178
 C   +1.19893671   +0.00000000   +2.21328616
 C   +2.53143829   -0.01888561   +1.49445330
 C   +3.70770170   -0.07310255   +2.44787779
 C   +3.89477105   +1.21330270   +3.20182908
 O   +4.79093311   +1.22038743   +4.21360888
 C   +5.50766908   +0.09923750   +4.55837185
 O   +3.32024894   +2.22913206   +2.95253961
 H   +4.69996642   -0.77802976   +5.15393102
 H   -0.92441404   +0.00428029   -0.55609498
 H   +6.21581328   +0.36167940   +5.33186207
 H   +5.94210164   -0.44716430   +3.72736995
 H   +3.59864994   -0.89597158   +3.15401399
 H   +4.63281655   -0.26489455   +1.90072060
 H   +2.62154259   +0.86637948   +0.86804099
 H   +2.58019531   -0.88759205   +0.83907834
 H   +1.13154763   -0.86342492   +2.88071576
 H   +1.15042043   +0.87822051   +2.85832965
 H   -0.95271724   +0.00414505   +1.84045131
 H   +0.91255119   +0.00259495   -0.57744615
 H   +4.09310251   -1.37023768   +5.56704372
22
 * E =  +7.596 kcal/mol ; (63) 121_178_182_186_001_072
 C   +0.00000000   +0.00000000   +0.00000000
 C   +0.00000000   +0.00000000   +1.32425918
 C   +1.22081712   +0.00000000   +2.17906036
 C   +1.27962892   +1.20553230   +3.10398422
 C   +2.50275679   +1.17674213   +3.99390611
 C   +2.53986646   +2.34606541   +4.93421529
 O   +3.64753798   +2.50368942   +5.69383150
 C   +4.71376022   +1.64044505   +5.61116674
 O   +1.65431454   +3.13565751   +5.05803659
 H   +5.35297179   +1.83112856   +4.45705480
 H   -0.91889450   +0.00556082   -0.56544121
 H   +4.45827233   +0.58561774   +5.61129154
 H   +5.44521571   +1.91623980   +6.35787776
 H   +2.51873281   +0.26018545   +4.58831961
 H   +3.41786950   +1.16469906   +3.40156641
 H   +0.38711228   +1.24832784   +3.72538500
 H   +1.28027246   +2.12251715   +2.51830740
 H   +2.10807465   -0.03186811   +1.54603317
 H   +1.23412972   -0.91081874   +2.78327168
 H   -0.94808622   +0.01019112   +1.84995695
 H   +0.92276932   -0.00617682   -0.56330004
 H   +5.77583005   +1.99442958   +3.62975057
22
 * E =  +7.610 kcal/mol ; (64) 121_178_180_175_359_289
 C   +0.00000000   +0.00000000   +0.00000000
 C   +0.00000000   +0.00000000   +1.32425231
 C   +1.22081522   +0.00000000   +2.17903129
 C   +1.28125679   +1.20640009   +3.10273926
 C   +2.50206607   +1.17409677   +3.99567854
 C   +2.55577416   +2.35974379   +4.91429376
 O   +3.54719416   +2.39544147   +5.83333060
 C   +4.46919153   +1.38256997   +5.94668498
 O   +1.78551304   +3.26995194   +4.88013749
 H   +3.88325249   +0.30421075   +6.46701898
 H   -0.91883556   +0.00519603   -0.56553358
 H   +5.20346206   +1.65986429   +6.69005704
 H   +4.89622244   +1.03653303   +5.01086248
 H   +2.52761355   +0.26115435   +4.59157157
 H   +3.41313046   +1.16374409   +3.39338857
 H   +0.38743089   +1.24865078   +3.72315899
 H   +1.28312771   +2.12434029   +2.51950684
 H   +2.10768944   -0.03217462   +1.54518805
 H   +1.23454849   -0.91043775   +2.78345520
 H   -0.94808750   +0.00964195   +1.84993548
 H   +0.92276675   -0.00605554   -0.56333690
 H   +3.43095173   -0.43759228   +6.83461451
22
 * E =  +7.651 kcal/mol ; (65) 119_175_072_180_359_290
 C   +0.00000000   +0.00000000   +0.00000000
 C   +0.00000000   +0.00000000   +1.32442967
 C   +1.22252966   +0.00000000   +2.17681019
 C   +1.30689697   +1.23731298   +3.05940618
 C   +2.48283651   +1.21119888   +4.01477844
 C   +3.79766875   +1.41363418   +3.31697617
 O   +4.91563543   +1.40510186   +4.07754602
 C   +4.87220561   +1.23516999   +5.44077502
 O   +3.91936442   +1.59180573   +2.14335961
 H   +4.34082307   +2.31895149   +6.00967927
 H   -0.91912858   +0.00685845   -0.56543492
 H   +5.88361373   +1.21617799   +5.82201878
 H   +4.25419584   +0.41359482   +5.78812491
 H   +2.38736392   +1.98507418   +4.77666288
 H   +2.51059784   +0.26255896   +4.55404018
 H   +0.39248859   +1.32698372   +3.64534424
 H   +1.37260157   +2.12271252   +2.43074161
 H   +2.10945902   -0.06264677   +1.55074735
 H   +1.21103047   -0.88634964   +2.81712625
 H   -0.94929366   +0.01206526   +1.84908105
 H   +0.92369782   -0.00584057   -0.56118525
 H   +3.96334863   +3.10099262   +6.37543940
22
 * E =  +7.675 kcal/mol ; (66) 000_180_180_186_001_071
 C   +0.00000000   +0.00000000   +0.00000000
 C   +0.00000000   +0.00000000   +1.32489337
 C   +1.20413858   +0.00000000   +2.20769000
 C   +2.53290524   -0.00568373   +1.48372151
 C   +3.69853786   -0.00480334   +2.44793740
 C   +5.01688456   -0.00166602   +1.73044715
 O   +6.13720181   -0.11718177   +2.47889610
 C   +6.08661043   -0.24787563   +3.84610786
 O   +5.13680227   +0.10244582   +0.54813013
 H   +5.62573567   -1.45844852   +4.16101813
 H   -0.92505270   -0.00000797   -0.55509073
 H   +5.41789619   +0.43991785   +4.35373681
 H   +7.09543378   -0.24846775   +4.23460534
 H   +3.65862834   +0.87513001   +3.09393453
 H   +3.65818595   -0.86699597   +3.11408721
 H   +2.61192761   +0.85969789   +0.82896857
 H   +2.60573647   -0.87928740   +0.83839860
 H   +1.14274173   -0.86494572   +2.87319209
 H   +1.14671583   +0.87049926   +2.86664245
 H   -0.95133879   +0.00003074   +1.84284700
 H   +0.91281128   -0.00007788   -0.57703403
 H   +5.29418057   -2.32271537   +4.34271991
22
 * E =  +7.685 kcal/mol ; (67) 350_291_286_181_000_071
 C   +0.00000000   +0.00000000   +0.00000000
 C   +0.00000000   +0.00000000   +1.32608531
 C   +1.19224012   +0.00000000   +2.22737345
 C   +2.53326816   -0.23864945   +1.55868088
 C   +2.70336476   -1.65517476   +1.04164335
 C   +2.94202251   -2.63713088   +2.15224892
 O   +3.12761959   -3.93167296   +1.81045155
 C   +3.11080032   -4.35048932   +0.50127500
 O   +2.98495393   -2.35184351   +3.31086022
 H   +4.20334464   -3.90630580   -0.12266619
 H   -0.92352565   +0.02239040   -0.55725056
 H   +2.28418379   -3.97845237   -0.09512294
 H   +3.22255781   -5.42549331   +0.47791178
 H   +1.81811114   -1.96503593   +0.48547377
 H   +3.53904057   -1.72495737   +0.34531925
 H   +3.32453205   -0.03350421   +2.27531861
 H   +2.66561333   +0.45812682   +0.73240564
 H   +1.04780524   -0.74059931   +3.01408316
 H   +1.21761411   +0.95992328   +2.74675620
 H   -0.95644773   +0.01863172   +1.83465447
 H   +0.91283953   -0.01146886   -0.57856224
 H   +4.98802138   -3.57665548   -0.52738258
22
 * E =  +7.714 kcal/mol ; (68) 010_069_072_188_001_072
 C   +0.00000000   +0.00000000   +0.00000000
 C   +0.00000000   +0.00000000   +1.32570443
 C   +1.19176795   +0.00000000   +2.22775793
 C   +2.53380211   +0.24746855   +1.56430169
 C   +2.69757445   +1.66829089   +1.05803147
 C   +2.86472993   +2.64838825   +2.18431595
 O   +2.84976664   +3.96328508   +1.87539981
 C   +2.67779238   +4.40514652   +0.58452074
 O   +3.02473681   +2.34160675   +3.32723506
 H   +1.41290627   +4.20381726   +0.20950503
 H   -0.92364898   -0.01936760   -0.55698744
 H   +3.27170810   +3.89059245   -0.16393839
 H   +2.78284836   +5.48092552   +0.56752470
 H   +3.58000066   +1.74839701   +0.42028426
 H   +1.84840295   +1.96739774   +0.44581484
 H   +2.67288519   -0.44344593   +0.73418393
 H   +3.32310263   +0.04411032   +2.28344439
 H   +1.22083607   -0.96173202   +2.74355940
 H   +1.04291705   +0.73617188   +3.01820013
 H   -0.95642282   -0.01804430   +1.83420235
 H   +0.91224372   +0.01337567   -0.57930589
 H   +0.51301747   +4.04309376   -0.01687111
22
 * E =  +7.779 kcal/mol ; (69) 248_300_292_168_359_288
 C   +0.00000000   +0.00000000   +0.00000000
 C   +0.00000000   +0.00000000   +1.32511913
 C   +1.22512192   +0.00000000   +2.17638721
 C   +1.42882135   -1.29351958   +2.96010860
 C   +0.29503214   -1.62750679   +3.90984994
 C   +0.20202746   -0.65644833   +5.05251072
 O   -0.90518607   -0.70242104   +5.82680974
 C   -1.92758035   -1.58629916   +5.57742581
 O   +1.05132286   +0.13393222   +5.33296183
 H   -2.57937594   -1.19965814   +4.48145470
 H   -0.91841903   +0.00027089   -0.56657257
 H   -2.66559879   -1.49855170   +6.36242107
 H   -1.61870124   -2.60578750   +5.36979983
 H   -0.65596716   -1.67674334   +3.38347686
 H   +0.44737027   -2.61825794   +4.34331272
 H   +2.35248673   -1.21787776   +3.52929938
 H   +1.53995964   -2.12024423   +2.26045671
 H   +1.18610236   +0.83023783   +2.88138636
 H   +2.09770269   +0.16301706   +1.54603659
 H   -0.95519505   +0.00563242   +1.83835341
 H   +0.92352276   +0.00812596   -0.56239971
 H   -2.99726683   -0.88317544   +3.69658284
22
 * E =  +7.914 kcal/mol ; (70) 349_291_179_185_002_071
 C   +0.00000000   +0.00000000   +0.00000000
 C   +0.00000000   +0.00000000   +1.32524656
 C   +1.19768313   +0.00000000   +2.22124811
 C   +2.53458304   -0.26430293   +1.55579966
 C   +2.67004339   -1.69244845   +1.06939601
 C   +3.99051299   -1.93090367   +0.39982219
 O   +4.18979051   -3.13656765   -0.17928778
 C   +3.21089881   -4.10138609   -0.19639375
 O   +4.87498854   -1.13088211   +0.35443258
 H   +2.24435739   -3.73180858   -1.03715082
 H   -0.92377316   +0.02555711   -0.55646549
 H   +2.70352222   -4.26496352   +0.74883759
 H   +3.61310189   -4.99995497   -0.64296734
 H   +2.58515861   -2.38411376   +1.91088841
 H   +1.86372145   -1.95622023   +0.38680123
 H   +3.33930845   -0.05594284   +2.25637813
 H   +2.68948708   +0.41924020   +0.72306561
 H   +1.03489407   -0.72900107   +3.01857615
 H   +1.23543993   +0.96643183   +2.72762799
 H   -0.95474967   +0.02562783   +1.83655958
 H   +0.91219645   -0.01634728   -0.57902019
 H   +1.58600579   -3.42581307   -1.63885677
22
 * E =  +8.196 kcal/mol ; (71) 248_299_184_175_359_289
 C   +0.00000000   +0.00000000   +0.00000000
 C   +0.00000000   +0.00000000   +1.32481521
 C   +1.22660900   +0.00000000   +2.17430969
 C   +1.43510601   -1.28922136   +2.95984120
 C   +0.31216538   -1.58386528   +3.93165557
 C   +0.60421011   -2.80030726   +4.76080671
 O   -0.27016850   -3.11267601   +5.74414825
 C   -1.38446997   -2.34859313   +5.99500033
 O   +1.55176699   -3.50781684   +4.60385496
 H   -1.01663078   -1.19095163   +6.54423914
 H   -0.91812729   -0.00618860   -0.56688743
 H   -1.96836010   -2.82586861   +6.76957310
 H   -1.95960202   -2.06506435   +5.11933832
 H   +0.13387288   -0.73628501   +4.59487209
 H   -0.62530554   -1.75441683   +3.39962690
 H   +2.36952866   -1.22907336   +3.51364340
 H   +1.54198977   -2.12688119   +2.27429300
 H   +1.18030778   +0.83776955   +2.87383044
 H   +2.09691879   +0.16911985   +1.54260020
 H   -0.95333641   -0.00035662   +1.84090273
 H   +0.92358229   +0.00937895   -0.56195309
 H   -0.71583455   -0.38369751   +6.92888760
22
 * E =  +8.203 kcal/mol ; (72) 250_300_290_180_001_070
 C   +0.00000000   +0.00000000   +0.00000000
 C   +0.00000000   +0.00000000   +1.32518730
 C   +1.22419703   +0.00000000   +2.17740716
 C   +1.45132158   -1.30920942   +2.92845654
 C   +0.33877294   -1.69665586   +3.88326388
 C   +0.26841075   -0.79983928   +5.08544788
 O   -0.69286143   -1.05580196   +6.00126015
 C   -1.56642000   -2.10913247   +5.87110685
 O   +1.00893035   +0.11349248   +5.29121347
 H   -0.90894664   -3.25705463   +6.04758458
 H   -0.91784965   +0.00010467   -0.56754906
 H   -2.03446401   -2.20912069   +4.89720807
 H   -2.26604550   -2.08536325   +6.69487801
 H   -0.62599555   -1.69328900   +3.37532366
 H   +0.47745613   -2.71789408   +4.23892620
 H   +2.38079225   -1.23434222   +3.48888861
 H   +1.57034263   -2.11450036   +2.20540620
 H   +1.17297258   +0.81247371   +2.90080737
 H   +2.09312679   +0.18885388   +1.54910733
 H   -0.95567435   +0.00704934   +1.83718191
 H   +0.92390105   +0.00889353   -0.56166611
 H   -0.41051029   -4.04503635   +6.18118665
22
 * E =  +8.689 kcal/mol ; (73) 245_070_189_086_007_070
 C   +0.00000000   +0.00000000   +0.00000000
 C   +0.00000000   +0.00000000   +1.32499150
 C   +1.21631688   +0.00000000   +2.18747574
 C   +1.34455797   -1.28127541   +3.00290698
 C   +1.67586231   -2.48557900   +2.12443687
 C   +1.57994348   -3.75606432   +2.91300165
 O   +0.36763054   -4.34783686   +3.01870577
 C   -0.72855910   -3.89665766   +2.32150638
 O   +2.49838268   -4.24772603   +3.49625142
 H   -0.56582534   -4.16966949   +1.02812904
 H   -0.91843594   -0.00887045   -0.56631474
 H   -0.89111868   -2.82350990   +2.34746965
 H   -1.59032080   -4.48282896   +2.60893068
 H   +1.02932447   -2.50555318   +1.25049123
 H   +2.70242161   -2.41226578   +1.77936509
 H   +0.41565557   -1.45175265   +3.55015498
 H   +2.12342800   -1.17169181   +3.75420981
 H   +1.17066102   +0.84595511   +2.87376040
 H   +2.10651227   +0.13704292   +1.57365786
 H   -0.95054080   -0.01411467   +1.84838313
 H   +0.92310264   +0.01873946   -0.56251558
 H   -0.39819921   -4.37149974   +0.12257774
22
 * E =  +9.041 kcal/mol ; (74) 240_182_177_091_002_071
 C   +0.00000000   +0.00000000   +0.00000000
 C   +0.00000000   +0.00000000   +1.32436280
 C   +1.22169391   +0.00000000   +2.17769627
 C   +1.29166916   -1.21816477   +3.08568898
 C   +2.51821591   -1.18165650   +3.99191128
 C   +2.52290765   -2.35186769   +4.93189594
 O   +3.14377280   -3.48939076   +4.54767606
 C   +3.80112280   -3.59430761   +3.34512765
 O   +1.96929456   -2.34343166   +5.98945968
 H   +4.91627111   -2.86605813   +3.38604673
 H   -0.91892256   -0.00378229   -0.56533304
 H   +3.25718922   -3.21635235   +2.48532535
 H   +4.15762058   -4.60836391   +3.22955933
 H   +3.43027705   -1.13053903   +3.40253315
 H   +2.47669762   -0.29572415   +4.61868057
 H   +1.29075527   -2.12114875   +2.47460756
 H   +0.39964320   -1.26787667   +3.70873885
 H   +1.22964858   +0.89797770   +2.79930081
 H   +2.10954437   +0.04650959   +1.54682710
 H   -0.94777694   -0.00836084   +1.85047819
 H   +0.92263079   +0.00926545   -0.56355695
 H   +5.68843424   -2.32944669   +3.45604034
22
 * E =  +9.080 kcal/mol ; (75) 109_296_294_264_344_068
 C   +0.00000000   +0.00000000   +0.00000000
 C   +0.00000000   +0.00000000   +1.32531027
 C   +1.23041487   +0.00000000   +2.16876211
 C   +1.45356442   +1.33502442   +2.87158696
 C   +1.70836395   +2.50040261   +1.91124100
 C   +3.00749124   +2.32089133   +1.18552356
 O   +4.11557173   +2.93693515   +1.66150289
 C   +4.06162802   +3.95710644   +2.57998534
 O   +3.13659005   +1.60348658   +0.23849295
 H   +3.62859253   +3.52099258   +3.76777224
 H   -0.92034023   +0.01219228   -0.56411148
 H   +3.37856239   +4.76267173   +2.32761845
 H   +5.06935789   +4.28846642   +2.78961130
 H   +0.93011292   +2.51177081   +1.15259737
 H   +1.66936844   +3.43615235   +2.45873359
 H   +2.28186340   +1.24657524   +3.57292242
 H   +0.57425664   +1.58661706   +3.46406255
 H   +2.09363230   -0.24560089   +1.55434783
 H   +1.14874169   -0.77364316   +2.93261252
 H   -0.94650587   +0.02607613   +1.85459031
 H   +0.92711186   -0.00731514   -0.55569821
 H   +3.32706773   +3.22728122   +4.60813934
22
 * E =  +9.189 kcal/mol ; (76) 120_176_062_087_005_070
 C   +0.00000000   +0.00000000   +0.00000000
 C   +0.00000000   +0.00000000   +1.32451350
 C   +1.22254651   +0.00000000   +2.17687681
 C   +1.28172161   +1.22183561   +3.08222783
 C   +2.47654373   +1.21362477   +4.03628000
 C   +3.77993932   +1.23242266   +3.29204203
 O   +4.30441895   +2.42708949   +2.93740170
 C   +3.73761818   +3.62036901   +3.31802882
 O   +4.36043361   +0.24432523   +2.95583029
 H   +3.90324318   +3.78521237   +4.62986182
 H   -0.91901801   +0.00149102   -0.56548331
 H   +2.66603522   +3.69588480   +3.16612344
 H   +4.30335576   +4.43070372   +2.87983290
 H   +2.40954538   +2.04171625   +4.73636982
 H   +2.47435921   +0.29109988   +4.60934271
 H   +0.37546299   +1.27156330   +3.68505035
 H   +1.28709829   +2.12103095   +2.46582672
 H   +2.11129678   -0.05304567   +1.55105515
 H   +1.23330679   -0.89599582   +2.80094612
 H   -0.94936599   +0.00612914   +1.84884026
 H   +0.92321280   -0.00844628   -0.56225451
 H   +4.03412713   +3.85104100   +5.56118545
22
 * E =  +9.400 kcal/mol ; (77) 240_182_175_110_008_295
 C   +0.00000000   +0.00000000   +0.00000000
 C   +0.00000000   +0.00000000   +1.32431710
 C   +1.22152779   +0.00000000   +2.17801918
 C   +1.28896036   -1.21710549   +3.08647117
 C   +2.51377148   -1.18134874   +3.99336640
 C   +2.47843879   -2.34032803   +4.94847755
 O   +3.36562659   -3.34973082   +4.80624819
 C   +4.41212985   -3.30131204   +3.91684442
 O   +1.66089808   -2.43188564   +5.81367259
 H   +3.94619830   -3.26118132   +2.66522108
 H   -0.91896031   -0.00461969   -0.56535601
 H   +4.95026069   -4.23791877   +3.96281608
 H   +5.04624202   -2.42407567   +4.00159481
 H   +3.41795326   -1.14777519   +3.39443110
 H   +2.48298164   -0.28178480   +4.60466898
 H   +1.30702274   -2.12068142   +2.47806317
 H   +0.39837700   -1.27161181   +3.71030368
 H   +1.22915667   +0.90019407   +2.79715458
 H   +2.10878161   +0.04363230   +1.54602811
 H   -0.94771761   -0.00910196   +1.85053881
 H   +0.92277463   +0.00652716   -0.56325087
 H   +3.58708117   -3.22476240   +1.79709422
22
 * E =  +9.612 kcal/mol ; (78) 253_305_302_264_344_068
 C   +0.00000000   +0.00000000   +0.00000000
 C   +0.00000000   +0.00000000   +1.32515810
 C   +1.22791213   +0.00000000   +2.17218650
 C   +1.49054151   -1.33415155   +2.86340205
 C   +0.33204061   -1.86283944   +3.71447923
 C   -0.05437810   -0.87830406   +4.77718833
 O   +0.45068103   -1.02054648   +6.02365277
 C   +1.03993847   -2.18404681   +6.45699167
 O   -0.74095208   +0.07529064   +4.55932910
 H   +2.19584795   -2.41145588   +5.82227516
 H   -0.91921019   -0.00098122   -0.56542739
 H   +0.45739816   -3.08317134   +6.28018014
 H   +1.34407914   -2.05565995   +7.48659717
 H   -0.54540424   -1.99944826   +3.08856141
 H   +0.60494723   -2.82995561   +4.12389563
 H   +2.38454214   -1.25087545   +3.47968103
 H   +1.69927871   -2.08972585   +2.10778007
 H   +1.14005863   +0.78628169   +2.92166369
 H   +2.09550009   +0.23768453   +1.55828994
 H   -0.94356092   +0.00761388   +1.85677907
 H   +0.92237750   +0.01052083   -0.56469887
 H   +3.01048898   -2.58220555   +5.38768142
22
 * E =  +9.843 kcal/mol ; (79) 242_181_067_092_019_292
 C   +0.00000000   +0.00000000   +0.00000000
 C   +0.00000000   +0.00000000   +1.32450465
 C   +1.21906017   +0.00000000   +2.18145526
 C   +1.29139273   -1.24327707   +3.05543261
 C   +2.51101199   -1.27593162   +3.98040615
 C   +2.42310346   -0.19520107   +5.01636786
 O   +1.84559534   -0.48421107   +6.20664941
 C   +1.68324083   -1.77188964   +6.65852602
 O   +2.76535119   +0.93223484   +4.82209419
 H   +0.78776254   -2.44814185   +5.92986919
 H   -0.91877065   -0.00048344   -0.56580842
 H   +1.22748979   -1.73996946   +7.63857356
 H   +2.57770529   -2.38605071   +6.61158682
 H   +2.59925986   -2.26154285   +4.42642447
 H   +3.41168426   -1.08220166   +3.40448029
 H   +1.33067313   -2.12615441   +2.41972092
 H   +0.38057812   -1.33488838   +3.64711624
 H   +1.22263445   +0.88858467   +2.81289106
 H   +2.10966501   +0.06106191   +1.55625997
 H   -0.94958016   -0.00614217   +1.84809063
 H   +0.92308940   +0.00834108   -0.56274471
 H   +0.16139480   -2.94863644   +5.43939619
22
 * E =  +9.971 kcal/mol ; (80) 114_062_178_271_357_289
 C   +0.00000000   +0.00000000   +0.00000000
 C   +0.00000000   +0.00000000   +1.32449641
 C   +1.22989610   +0.00000000   +2.16860963
 C   +1.40999334   +1.26929071   +2.99317996
 C   +0.27581043   +1.50219429   +3.98880057
 C   +0.53911289   +2.73156056   +4.80807833
 O   +1.23533781   +2.60259580   +5.96079001
 C   +1.65228578   +1.38104078   +6.43234690
 O   +0.20353476   +3.82736353   +4.47517746
 H   +0.59674535   +0.68574251   +6.85285671
 H   -0.91876245   +0.00511825   -0.56559142
 H   +2.23674936   +1.53383729   +7.32896338
 H   +2.12852716   +0.73822809   +5.69876753
 H   -0.64948145   +1.69484790   +3.45588660
 H   +0.12789565   +0.62466505   +4.61431795
 H   +1.47310399   +2.13104716   +2.33143152
 H   +2.36271432   +1.21109621   +3.52050151
 H   +2.10165585   -0.12963338   +1.52924082
 H   +1.20494430   -0.85803797   +2.84434846
 H   -0.95079942   -0.00005848   +1.84386986
 H   +0.92290375   -0.00661467   -0.56313192
 H   -0.17966289   +0.22567524   +7.12747663
22
 * E = +10.289 kcal/mol ; (81) 250_299_187_281_006_089
 C   +0.00000000   +0.00000000   +0.00000000
 C   +0.00000000   +0.00000000   +1.32500966
 C   +1.22811238   +0.00000000   +2.17267761
 C   +1.46372662   -1.31576034   +2.90645891
 C   +0.32920686   -1.66872244   +3.86260915
 C   +0.63706375   -2.87481031   +4.70080389
 O   +0.49519365   -4.10430152   +4.15837234
 C   +0.19819619   -4.33324806   +2.83714549
 O   +1.00382378   -2.80648504   +5.83532268
 H   +1.33068380   -4.40177581   +2.14833105
 H   -0.91844903   -0.00563343   -0.56640210
 H   -0.37777000   -3.56155012   +2.33909531
 H   -0.21440098   -5.32771670   +2.73403862
 H   +0.18104393   -0.85836581   +4.57023447
 H   -0.60394641   -1.80606677   +3.31944311
 H   +2.38846806   -1.24322118   +3.47662666
 H   +1.60683023   -2.10755021   +2.17384607
 H   +1.16359180   +0.80589856   +2.90603470
 H   +2.09494066   +0.21039230   +1.54859019
 H   -0.95218453   +0.00012482   +1.84265609
 H   +0.92320182   +0.01290435   -0.56261576
 H   +2.15215803   -4.44820788   +1.68186787
