22
 * E =  +0.000 kcal/mol ; (1) 250_064_067_196_180
 C   +0.00000000   +0.00000000   +0.00000000
 C   +0.00000000   +0.00000000   +1.31346446
 C   +1.21011589   +0.00000000   +2.19051711
 C   +1.40715831   -1.32694704   +2.91703766
 C   +1.68135040   -2.48207733   +1.97714451
 C   +2.99963175   -2.35321727   +1.27705271
 O   +3.08511095   -3.17088258   +0.23171431
 C   +4.30623438   -3.11476310   -0.48378126
 O   +3.89459280   -1.62194184   +1.60820877
 H   +4.46298804   -2.11682168   -0.88175077
 H   -0.81280173   -0.01206530   -0.70845958
 H   +4.21240272   -3.83424776   -1.28673610
 H   +5.13890120   -3.37012222   +0.16416131
 H   +1.70549987   -3.42690036   +2.52060223
 H   +0.90341622   -2.58391921   +1.22347498
 H   +0.52235573   -1.55820842   +3.50963014
 H   +2.24099821   -1.22485189   +3.60804727
 H   +1.10938640   +0.79256212   +2.93141981
 H   +2.09730885   +0.22409831   +1.60346043
 H   -0.96265474   -0.02517235   +1.82358723
 H   +1.30982738   -0.01122354   -0.65494119
 H   +2.08629284   -0.03156707   -1.01098718
22
 * E =  +0.260 kcal/mol ; (2) 119_178_290_168_178
 C   +0.00000000   +0.00000000   +0.00000000
 C   +0.00000000   +0.00000000   +1.31291513
 C   +1.20517294   +0.00000000   +2.19376842
 C   +1.26092787   +1.23099552   +3.08623449
 C   +2.44670560   +1.21745735   +4.02705610
 C   +2.32894377   +0.17752832   +5.09933648
 O   +3.47550470   +0.01425086   +5.75390428
 C   +3.44287817   -0.92487814   +6.81446306
 O   +1.32994516   -0.43320716   +5.37066349
 H   +4.44005445   -0.93148404   +7.23474766
 H   -0.81494567   +0.00036004   -0.70589571
 H   +3.17932587   -1.90915726   +6.44042248
 H   +2.71459328   -0.62687232   +7.56218360
 H   +3.38428551   +1.05882580   +3.49642570
 H   +2.55146217   +2.17621970   +4.53533621
 H   +0.34541388   +1.29594422   +3.67237717
 H   +1.30978782   +2.12370009   +2.46531193
 H   +2.10397739   -0.05896841   +1.58170722
 H   +1.17693798   -0.88763957   +2.82612177
 H   -0.96064527   +0.00637694   +1.82637270
 H   +1.30675593   +0.00102214   -0.66156952
 H   +2.07933200   +0.00408051   -1.02479925
22
 * E =  +0.408 kcal/mol ; (3) 242_066_182_186_181
 C   +0.00000000   +0.00000000   +0.00000000
 C   +0.00000000   +0.00000000   +1.31314566
 C   +1.20486957   +0.00000000   +2.19745591
 C   +1.28460392   -1.23995722   +3.07770560
 C   +1.49542150   -2.50379844   +2.27496773
 C   +1.52316804   -3.73044675   +3.12970342
 O   +1.83458850   -4.81541513   +2.42325404
 C   +1.86703257   -6.02773740   +3.15474871
 O   +1.29118394   -3.76488929   +4.30828671
 H   +2.60314497   -5.97077672   +3.95054364
 H   -0.81523972   -0.00098492   -0.70568317
 H   +2.13502454   -6.79682173   +2.44202623
 H   +0.89459435   -6.23358006   +3.59121570
 H   +0.70686525   -2.63536963   +1.53365110
 H   +2.42412387   -2.46558578   +1.70624346
 H   +0.37680822   -1.33852285   +3.67128004
 H   +2.09712393   -1.12610821   +3.79246138
 H   +1.16649023   +0.88116582   +2.83818472
 H   +2.10328388   +0.08880552   +1.58855551
 H   -0.96192719   -0.01255575   +1.82528066
 H   +1.30690493   -0.00269436   -0.65951426
 H   +2.08067074   -0.00960580   -1.02036674
22
 * E =  +0.428 kcal/mol ; (4) 243_059_277_159_178
 C   +0.00000000   +0.00000000   +0.00000000
 C   +0.00000000   +0.00000000   +1.31344904
 C   +1.21492586   +0.00000000   +2.18302862
 C   +1.33170857   -1.24894935   +3.04990659
 C   +1.39520756   -2.53079757   +2.24202608
 C   +0.04431962   -3.03998708   +1.83930095
 O   +0.11766656   -3.86388909   +0.79876501
 C   -1.11321521   -4.42617558   +0.38163751
 O   -0.98884028   -2.78638935   +2.39968446
 H   -1.56052945   -5.00141192   +1.18630864
 H   -0.81587980   -0.00640378   -0.70505769
 H   -0.87727297   -5.06544316   -0.45914650
 H   -1.80331068   -3.64283818   +0.08416022
 H   +2.00701123   -2.42058032   +1.34873620
 H   +1.84984749   -3.33007028   +2.82839691
 H   +0.48713386   -1.31032703   +3.73419772
 H   +2.23080830   -1.16249453   +3.65656618
 H   +1.18364985   +0.87398091   +2.83428509
 H   +2.10260285   +0.09824075   +1.55990299
 H   -0.95742238   -0.03473536   +1.83003611
 H   +1.30640210   +0.00305421   -0.66379837
 H   +2.07916117   -0.00071181   -1.02711071
22
 * E =  +0.734 kcal/mol ; (5) 121_178_182_185_181
 C   +0.00000000   +0.00000000   +0.00000000
 C   +0.00000000   +0.00000000   +1.31270609
 C   +1.20717361   +0.00000000   +2.19199691
 C   +1.24463050   +1.20669265   +3.11565181
 C   +2.44884036   +1.18109284   +4.02938844
 C   +2.47656607   +2.33486991   +4.98233108
 O   +3.59255637   +2.34380743   +5.70855725
 C   +3.69690678   +3.39826161   +6.64889295
 O   +1.61235533   +3.16010887   +5.10278754
 H   +4.64880708   +3.25984206   +7.14480431
 H   -0.81547125   +0.00505396   -0.70517980
 H   +2.88240647   +3.34971994   +7.36487302
 H   +3.66441126   +4.35936212   +6.14540242
 H   +2.47413948   +0.26716304   +4.62431928
 H   +3.38096962   +1.18932496   +3.46524344
 H   +0.33844608   +1.24724649   +3.71822100
 H   +1.25299397   +2.12153134   +2.52621548
 H   +2.10455658   -0.03360671   +1.57636181
 H   +1.20296722   -0.91081800   +2.79492883
 H   -0.96101042   +0.01163374   +1.82558865
 H   +1.30560776   +0.00042874   -0.66316608
 H   +2.07736450   +0.00362782   -1.02774964
22
 * E =  +0.853 kcal/mol ; (6) 121_175_069_193_182
 C   +0.00000000   +0.00000000   +0.00000000
 C   +0.00000000   +0.00000000   +1.31291122
 C   +1.20612278   +0.00000000   +2.19359612
 C   +1.24336388   +1.21138376   +3.11325726
 C   +2.39264020   +1.16695748   +4.09763435
 C   +3.73122253   +1.32450488   +3.44270652
 O   +4.72360906   +1.00699064   +4.27100079
 C   +6.02907862   +1.16866430   +3.74437508
 O   +3.91623442   +1.70919329   +2.31990471
 H   +6.70607685   +0.87097476   +4.53442997
 H   -0.81802904   +0.00399113   -0.70244237
 H   +6.19938841   +2.20358364   +3.46460023
 H   +6.16421045   +0.54185997   +2.86858470
 H   +2.30979935   +1.97196155   +4.82832037
 H   +2.39852662   +0.24219267   +4.67261716
 H   +0.30960750   +1.27461373   +3.67167039
 H   +1.31905988   +2.11428979   +2.51084676
 H   +2.10603864   -0.02646640   +1.58418423
 H   +1.19454937   -0.90689014   +2.80307912
 H   -0.96229790   +0.00931552   +1.82442896
 H   +1.30462699   -0.00151106   -0.66660571
 H   +2.07401078   -0.00056929   -1.03323850
22
 * E =  +1.100 kcal/mol ; (7) 000_177_069_189_182
 C   +0.00000000   +0.00000000   +0.00000000
 C   +0.00000000   +0.00000000   +1.31428829
 C   +1.16035638   +0.00000000   +2.25399542
 C   +2.52767930   -0.00018157   +1.60495974
 C   +3.65214502   +0.06210125   +2.61660301
 C   +3.78417118   -1.18473103   +3.43664979
 O   +4.64544241   -1.02244082   +4.43870134
 C   +4.86207580   -2.16638952   +5.24584208
 O   +3.21329367   -2.22168753   +3.23003588
 H   +3.93387147   -2.48347143   +5.71082367
 H   -0.83902542   -0.00462360   -0.67758382
 H   +5.58137216   -1.86703076   +5.99694545
 H   +5.25179572   -2.98409551   +4.64768843
 H   +4.61176761   +0.20964924   +2.12113385
 H   +3.53961036   +0.90543984   +3.29699963
 H   +2.61397884   +0.85282296   +0.93435841
 H   +2.63996002   -0.89479908   +0.99577150
 H   +1.06805670   -0.87112966   +2.90351037
 H   +1.06211247   +0.87155025   +2.90652361
 H   -0.97539835   -0.00213462   +1.79849239
 H   +1.21577148   -0.01301390   -0.81955742
 H   +1.88185647   -0.02354082   -1.35126550
22
 * E =  +1.116 kcal/mol ; (8) 248_299_294_166_178
 C   +0.00000000   +0.00000000   +0.00000000
 C   +0.00000000   +0.00000000   +1.31337595
 C   +1.21209833   +0.00000000   +2.18846542
 C   +1.39653997   -1.29406807   +2.97406061
 C   +0.26628578   -1.61380606   +3.93112196
 C   +0.15680902   -0.63269721   +5.05786974
 O   -1.00282225   -0.74776817   +5.70083168
 C   -1.16831145   +0.11185890   +6.81511648
 O   +1.00457858   +0.15630883   +5.37893917
 H   -0.39923201   -0.07778492   +7.55731971
 H   -0.81603520   -0.00003799   -0.70486162
 H   -2.14852859   -0.10932196   +7.21674957
 H   -1.10754024   +1.15014963   +6.50459013
 H   -0.69781506   -1.67848710   +3.43132977
 H   +0.42254478   -2.59091477   +4.38933030
 H   +2.32226829   -1.22215719   +3.54130197
 H   +1.50537179   -2.12278000   +2.27661648
 H   +1.15234843   +0.83020088   +2.89187427
 H   +2.09317902   +0.16708593   +1.57363335
 H   -0.96693183   +0.00030647   +1.81458296
 H   +1.30509526   +0.01688892   -0.66324561
 H   +2.07658681   +0.02924430   -1.02909600
22
 * E =  +1.361 kcal/mol ; (9) 119_178_298_321_182
 C   +0.00000000   +0.00000000   +0.00000000
 C   +0.00000000   +0.00000000   +1.31286283
 C   +1.20655967   +0.00000000   +2.19233101
 C   +1.26353460   +1.22985741   +3.08562302
 C   +2.46252981   +1.21958866   +4.01663019
 C   +2.48752388   +0.08065132   +4.99105800
 O   +1.27600172   -0.19894272   +5.47142210
 C   +1.23003527   -1.23953496   +6.43177517
 O   +3.47429654   -0.50962248   +5.33772594
 H   +1.60307959   -2.16531011   +6.00505629
 H   -0.81572547   +0.00424601   -0.70493969
 H   +0.18930424   -1.33997313   +6.71123252
 H   +1.83526130   -0.98384781   +7.29580974
 H   +3.39838662   +1.18007005   +3.46633567
 H   +2.47956276   +2.13500104   +4.60874218
 H   +0.35050664   +1.29779611   +3.67452126
 H   +1.30904575   +2.12279734   +2.46455348
 H   +2.10576909   -0.06271022   +1.58211941
 H   +1.18172109   -0.89298481   +2.82037730
 H   -0.96084732   +0.01189671   +1.82609843
 H   +1.30586873   -0.00469482   -0.66209144
 H   +2.07806789   -0.00532860   -1.02560045
22
 * E =  +1.393 kcal/mol ; (10) 241_066_181_052_179
 C   +0.00000000   +0.00000000   +0.00000000
 C   +0.00000000   +0.00000000   +1.31313568
 C   +1.20556068   +0.00000000   +2.19597917
 C   +1.26946425   -1.22740806   +3.09550914
 C   +1.46211130   -2.51008820   +2.30344384
 C   +1.50675191   -3.73776347   +3.15616538
 O   +0.46083442   -3.80980210   +3.98033121
 C   +0.41954076   -4.95746425   +4.80903811
 O   +2.36077964   -4.58179836   +3.11929662
 H   +0.38220108   -5.85918390   +4.20576818
 H   -0.81592390   +0.00075330   -0.70486099
 H   -0.47818245   -4.86074564   +5.40585911
 H   +1.29863449   -4.99799532   +5.44454058
 H   +0.64107032   -2.62752341   +1.59566956
 H   +2.38469626   -2.48416457   +1.73115452
 H   +0.35825260   -1.30253949   +3.68676593
 H   +2.09151090   -1.10780982   +3.80012497
 H   +1.17877742   +0.89096092   +2.82395940
 H   +2.10516992   +0.06688109   +1.58655020
 H   -0.96158626   -0.01025568   +1.82591355
 H   +1.30618126   -0.00355816   -0.66036000
 H   +2.07940152   -0.01030537   -1.02196279
22
 * E =  +1.414 kcal/mol ; (11) 242_183_299_319_181
 C   +0.00000000   +0.00000000   +0.00000000
 C   +0.00000000   +0.00000000   +1.31272522
 C   +1.20758517   +0.00000000   +2.19107685
 C   +1.27980001   -1.24044285   +3.06876526
 C   +2.46193213   -1.21114945   +4.02143578
 C   +3.79843625   -1.14779704   +3.34464046
 O   +3.85500768   -1.93596147   +2.27294678
 C   +5.09637098   -1.94769321   +1.59036134
 O   +4.73123674   -0.48979502   +3.71851079
 H   +4.96604253   -2.61645285   +0.74960980
 H   -0.81451246   -0.00552357   -0.70627804
 H   +5.88494333   -2.30461372   +2.24542615
 H   +5.34935098   -0.94890303   +1.24884652
 H   +2.41343299   -0.36125995   +4.69644053
 H   +2.46424005   -2.11093785   +4.63701424
 H   +1.34109469   -2.12408901   +2.43761070
 H   +0.36495752   -1.32908544   +3.65429695
 H   +1.18453127   +0.88691618   +2.82745690
 H   +2.10268669   +0.07126217   +1.57551689
 H   -0.96159208   -0.01223376   +1.82486483
 H   +1.30842104   -0.00102578   -0.66126677
 H   +2.08060023   -0.00528787   -1.02302789
22
 * E =  +1.424 kcal/mol ; (12) 247_298_186_185_181
 C   +0.00000000   +0.00000000   +0.00000000
 C   +0.00000000   +0.00000000   +1.31321650
 C   +1.21420987   +0.00000000   +2.18608463
 C   +1.38701539   -1.28111186   +2.99175000
 C   +0.24679322   -1.54491783   +3.95059842
 C   +0.50410232   -2.72215449   +4.83897893
 O   -0.55201354   -2.99991356   +5.60104926
 C   -0.39087601   -4.09422117   +6.48624188
 O   +1.52582961   -3.35149963   +4.88517499
 H   -0.18115530   -5.00288895   +5.93072775
 H   -0.81630854   -0.00445466   -0.70442537
 H   -1.32712011   -4.18242848   +7.02183652
 H   +0.42724446   -3.90752968   +7.17487811
 H   +0.06833159   -0.68440478   +4.59765510
 H   -0.69323053   -1.72502884   +3.43147863
 H   +2.31489166   -1.22661745   +3.55709663
 H   +1.49324861   -2.12662959   +2.31466648
 H   +1.15425567   +0.84706634   +2.87260570
 H   +2.09554971   +0.15529919   +1.56867328
 H   -0.96461949   -0.00317494   +1.81846750
 H   +1.30468821   +0.01849280   -0.66371477
 H   +2.07598313   +0.03179607   -1.02956996
22
 * E =  +1.536 kcal/mol ; (13) 251_305_306_285_178
 C   +0.00000000   +0.00000000   +0.00000000
 C   +0.00000000   +0.00000000   +1.31313863
 C   +1.21847851   +0.00000000   +2.18035668
 C   +1.44181245   -1.32025903   +2.91024234
 C   +0.25141986   -1.77772649   +3.74928376
 C   -0.17559833   -0.71590603   +4.71140366
 O   +0.65451825   -0.61877093   +5.74744418
 C   +0.34521451   +0.39934806   +6.68316676
 O   -1.12728652   +0.00582983   +4.56962860
 H   +0.36025646   +1.37278867   +6.20301184
 H   -0.81642901   +0.00009169   -0.70444551
 H   +1.10752951   +0.33988590   +7.44892775
 H   -0.63913283   +0.23422430   +7.10965466
 H   -0.60125186   -2.00254918   +3.11633424
 H   +0.52005525   -2.67376366   +4.30292290
 H   +2.31559577   -1.22643969   +3.55281917
 H   +1.66020819   -2.09936473   +2.18221591
 H   +1.12174754   +0.80444297   +2.91153375
 H   +2.09575544   +0.22290296   +1.57771023
 H   -0.95640575   +0.00354554   +1.83282935
 H   +1.30532713   +0.02234140   -0.66096052
 H   +2.08016853   +0.03922287   -1.02198630
22
 * E =  +1.537 kcal/mol ; (14) 240_064_179_304_180
 C   +0.00000000   +0.00000000   +0.00000000
 C   +0.00000000   +0.00000000   +1.31287575
 C   +1.20620090   +0.00000000   +2.19499777
 C   +1.26377011   -1.20973741   +3.11779665
 C   +1.40187090   -2.51554312   +2.35077464
 C   +1.48153586   -3.71230305   +3.24477977
 O   +2.48047477   -3.60954647   +4.12226440
 C   +2.63067450   -4.70859532   +5.00266523
 O   +0.75319899   -4.66655205   +3.20196566
 H   +1.73015257   -4.84747097   +5.59266841
 H   -0.81534714   +0.00022356   -0.70541596
 H   +3.47081259   -4.46581336   +5.64034118
 H   +2.82597635   -5.61814680   +4.44318247
 H   +0.56531605   -2.66886594   +1.67707625
 H   +2.31158877   -2.48595143   +1.75014696
 H   +0.36237406   -1.24214567   +3.73138012
 H   +2.10396927   -1.10368211   +3.80001393
 H   +1.19193876   +0.90273402   +2.80658496
 H   +2.10561085   +0.04471368   +1.58294659
 H   -0.96176140   -0.00856100   +1.82538777
 H   +1.30642458   -0.00846178   -0.66050189
 H   +2.07969237   -0.01864939   -1.02208671
22
 * E =  +1.592 kcal/mol ; (15) 000_180_180_180_180
 C   +0.00000000   +0.00000000   +0.00000000
 C   +0.00000000   +0.00000000   +1.31436649
 C   +1.16507162   +0.00000000   +2.24960058
 C   +2.53235811   +0.00000490   +1.60208475
 C   +3.63384202   +0.00000395   +2.63793320
 C   +5.00206029   -0.00000692   +2.03138340
 O   +5.95118728   +0.00004203   +2.96639759
 C   +7.28139895   +0.00002731   +2.47957152
 O   +5.24471088   -0.00005511   +0.85559358
 H   +7.46365336   -0.88277676   +1.87472367
 H   -0.84214429   -0.00000086   -0.67380303
 H   +7.91760572   +0.00007497   +3.35509909
 H   +7.46364138   +0.88277508   +1.87463775
 H   +3.56549672   +0.86821212   +3.29398188
 H   +3.56548755   -0.86820194   +3.29398469
 H   +2.64201001   +0.86787102   +0.95494121
 H   +2.64201510   -0.86785622   +0.95493559
 H   +1.06698443   -0.86745182   +2.90698108
 H   +1.06698040   +0.86744704   +2.90698673
 H   -0.97334152   -0.00000194   +1.80261656
 H   +1.21544006   +0.00000290   -0.81794404
 H   +1.88428545   +0.00000528   -1.34580131
22
 * E =  +1.652 kcal/mol ; (16) 120_178_180_051_179
 C   +0.00000000   +0.00000000   +0.00000000
 C   +0.00000000   +0.00000000   +1.31280897
 C   +1.20776495   +0.00000000   +2.19124608
 C   +1.25921433   +1.22171217   +3.09494260
 C   +2.46495713   +1.18731525   +4.01914013
 C   +2.55665931   +2.37098728   +4.93084015
 O   +1.41597335   +2.58369796   +5.58617678
 C   +1.42749928   +3.67917075   +6.48422185
 O   +3.53061230   +3.05692570   +5.08367748
 H   +2.18269006   +3.53284400   +7.25014580
 H   -0.81593118   +0.00445002   -0.70467304
 H   +0.43932349   +3.71260803   +6.92430688
 H   +1.64125863   +4.60144608   +5.95331653
 H   +2.41869243   +0.29564231   +4.64591032
 H   +3.39373299   +1.14697568   +3.45812673
 H   +0.35090228   +1.28259055   +3.69181590
 H   +1.29173717   +2.12083771   +2.48045140
 H   +2.10519502   -0.05245801   +1.57754769
 H   +1.19359617   -0.89866912   +2.81167883
 H   -0.96085100   +0.01142989   +1.82602377
 H   +1.30530619   -0.00382431   -0.66298488
 H   +2.07690584   -0.00397894   -1.02767744
22
 * E =  +1.654 kcal/mol ; (17) 120_177_180_305_180
 C   +0.00000000   +0.00000000   +0.00000000
 C   +0.00000000   +0.00000000   +1.31275839
 C   +1.20772308   +0.00000000   +2.19127274
 C   +1.26372182   +1.22516465   +3.09004218
 C   +2.46316203   +1.18357780   +4.02347318
 C   +2.54636676   +2.37129330   +4.93025969
 O   +2.54617372   +3.51575932   +4.24844282
 C   +2.63125746   +4.69135164   +5.03402268
 O   +2.61111870   +2.32891456   +6.12901566
 H   +2.62056866   +5.51702443   +4.33448208
 H   -0.81571655   +0.00356150   -0.70491305
 H   +3.54871964   +4.69324207   +5.61420671
 H   +1.78704729   +4.75469785   +5.71340161
 H   +2.44047777   +0.30137726   +4.65614321
 H   +3.38055921   +1.15038712   +3.43513764
 H   +0.34773692   +1.28678508   +3.67891434
 H   +1.30715720   +2.12545678   +2.48133633
 H   +2.10529809   -0.05360828   +1.57752032
 H   +1.19269586   -0.89779238   +2.81242452
 H   -0.96103951   +0.00990437   +1.82567468
 H   +1.30556025   -0.00177474   -0.66277595
 H   +2.07738169   -0.00055531   -1.02701933
22
 * E =  +1.709 kcal/mol ; (18) 248_302_302_108_182
 C   +0.00000000   +0.00000000   +0.00000000
 C   +0.00000000   +0.00000000   +1.31322371
 C   +1.21595216   +0.00000000   +2.18331493
 C   +1.40229625   -1.29411003   +2.96758251
 C   +0.22778670   -1.64493614   +3.87491475
 C   -0.02171975   -0.54583565   +4.85936437
 O   -1.13115693   +0.13912390   +4.58158935
 C   -1.40915800   +1.22233867   +5.45265458
 O   +0.70044905   -0.26872485   +5.77861720
 H   -1.52628260   +0.86667784   +6.47136913
 H   -0.81660646   -0.00154208   -0.70421463
 H   -2.32992983   +1.66322905   +5.09375761
 H   -0.60125436   +1.94685239   +5.42529533
 H   -0.67272665   -1.82889754   +3.29664172
 H   +0.46355633   -2.54252916   +4.44044075
 H   +2.29957892   -1.20981371   +3.57774453
 H   +1.55782256   -2.11731830   +2.27280993
 H   +1.14760156   +0.83500692   +2.88368674
 H   +2.09824400   +0.17524200   +1.57249784
 H   -0.95980718   +0.00128393   +1.82677593
 H   +1.30478043   +0.01916533   -0.66287715
 H   +2.07783865   +0.03366388   -1.02634287
22
 * E =  +1.784 kcal/mol ; (19) 242_066_286_323_181
 C   +0.00000000   +0.00000000   +0.00000000
 C   +0.00000000   +0.00000000   +1.31298914
 C   +1.21254786   +0.00000000   +2.18668223
 C   +1.32557634   -1.23981646   +3.06525766
 C   +1.53869458   -2.52661070   +2.28575168
 C   +0.34914289   -3.06197896   +1.54656954
 O   -0.78817459   -2.88765042   +2.22081672
 C   -1.94678057   -3.39153595   +1.58317988
 O   +0.39721228   -3.63969442   +0.49532019
 H   -2.09200569   -2.89979626   +0.62569480
 H   -0.81367834   -0.00911908   -0.70724458
 H   -2.77157779   -3.17868052   +2.25120624
 H   -1.85526890   -4.46020183   +1.41648322
 H   +2.33809465   -2.42408320   +1.55665369
 H   +1.83826007   -3.31997087   +2.97177466
 H   +0.43984009   -1.33732702   +3.69060935
 H   +2.17124802   -1.10558364   +3.73757045
 H   +1.17764036   +0.87840653   +2.83206503
 H   +2.10354968   +0.09517030   +1.56813355
 H   -0.95785247   -0.01950741   +1.83097344
 H   +1.30735567   -0.00724619   -0.66145383
 H   +2.07970235   -0.01420642   -1.02237234
22
 * E =  +1.953 kcal/mol ; (20) 000_182_299_319_182
 C   +0.00000000   +0.00000000   +0.00000000
 C   +0.00000000   +0.00000000   +1.31429341
 C   +1.16353005   +0.00000000   +2.25058827
 C   +2.53020554   -0.00687508   +1.60088597
 C   +3.65153199   -0.04395194   +2.62445710
 C   +3.68534212   +1.13296303   +3.55208675
 O   +3.44509555   +2.27932158   +2.91719075
 C   +3.49890878   +3.44332356   +3.72241983
 O   +3.92214723   +1.08021841   +4.72871774
 H   +3.27434857   +4.27117190   +3.06252819
 H   -0.83943467   +0.00055846   -0.67708977
 H   +4.48709910   +3.55747555   +4.15694907
 H   +2.76933432   +3.38367769   +4.52403627
 H   +3.59800621   -0.93154073   +3.24867032
 H   +4.61487320   -0.06797764   +2.11476569
 H   +2.64135686   +0.87163770   +0.96959205
 H   +2.62240998   -0.87533722   +0.95113217
 H   +1.06479298   -0.86279811   +2.91336217
 H   +1.07007914   +0.87449005   +2.89911797
 H   -0.97437641   +0.00029012   +1.80029996
 H   +1.21569066   +0.00136814   -0.81922941
 H   +1.88177085   +0.00225690   -1.35102314
22
 * E =  +2.339 kcal/mol ; (21) 248_298_185_309_181
 C   +0.00000000   +0.00000000   +0.00000000
 C   +0.00000000   +0.00000000   +1.31317750
 C   +1.21564045   +0.00000000   +2.18375290
 C   +1.40223009   -1.29295085   +2.96832786
 C   +0.25875659   -1.57856972   +3.92935893
 C   +0.48974301   -2.78380784   +4.78592112
 O   +0.84479330   -3.84534464   +4.06412282
 C   +1.06683538   -5.03490902   +4.80046155
 O   +0.36695824   -2.82132578   +5.98033797
 H   +1.86172444   -4.88886675   +5.52503642
 H   -0.81625226   -0.00353037   -0.70446520
 H   +1.34675930   -5.78585836   +4.07317740
 H   +0.16362368   -5.32919300   +5.32580792
 H   +0.08588122   -0.74236183   +4.60109339
 H   -0.66171154   -1.75355767   +3.37208173
 H   +2.33291425   -1.22353267   +3.53086167
 H   +1.51065446   -2.12744238   +2.27943957
 H   +1.14970604   +0.83504700   +2.88356614
 H   +2.09463389   +0.17140253   +1.56699113
 H   -0.96401503   -0.00145136   +1.81913384
 H   +1.30477890   +0.01750678   -0.66298732
 H   +2.07666968   +0.03011221   -1.02800745
22
 * E =  +2.347 kcal/mol ; (22) 245_297_183_051_179
 C   +0.00000000   +0.00000000   +0.00000000
 C   +0.00000000   +0.00000000   +1.31311325
 C   +1.21576742   +0.00000000   +2.18344592
 C   +1.37270334   -1.26691181   +3.01521799
 C   +0.24188259   -1.47279197   +4.01084637
 C   +0.42910542   -2.67167391   +4.88832290
 O   +1.62830316   -2.68298077   +5.46869061
 C   +1.87473640   -3.77984319   +6.33064734
 O   -0.39106347   -3.52872987   +5.07649447
 H   +1.15580220   -3.79093523   +7.14388969
 H   -0.81638543   -0.00425385   -0.70426944
 H   +2.87837154   -3.63925567   +6.71039335
 H   +1.79967067   -4.71459494   +5.78409757
 H   +0.16896352   -0.60103552   +4.66330157
 H   -0.71623836   -1.59890877   +3.51740024
 H   +2.31371328   -1.21920496   +3.55841647
 H   +1.43246668   -2.12695511   +2.34895292
 H   +1.17127556   +0.85986338   +2.85499326
 H   +2.09769283   +0.12986568   +1.56080888
 H   -0.96406521   -0.00248368   +1.81866899
 H   +1.30455337   +0.01491823   -0.66413873
 H   +2.07616634   +0.02558132   -1.02977424
22
 * E =  +2.394 kcal/mol ; (23) 251_298_074_051_181
 C   +0.00000000   +0.00000000   +0.00000000
 C   +0.00000000   +0.00000000   +1.31339349
 C   +1.21914891   +0.00000000   +2.18134435
 C   +1.46836009   -1.31337619   +2.91565632
 C   +0.36567445   -1.72008845   +3.88389749
 C   -0.88578726   -2.22540708   +3.23242611
 O   -0.62837909   -3.17886038   +2.34200564
 C   -1.75543603   -3.69431329   +1.65772091
 O   -2.00022959   -1.84708043   +3.47916233
 H   -2.46669822   -4.11682171   +2.36032162
 H   -0.81721133   +0.00455396   -0.70360729
 H   -1.37492838   -4.45765029   +0.99167779
 H   -2.24296157   -2.90524068   +1.09314860
 H   +0.72984981   -2.52749484   +4.51888167
 H   +0.07937444   -0.89742046   +4.53330948
 H   +2.39354565   -1.21234102   +3.48056911
 H   +1.62218506   -2.11241032   +2.19355580
 H   +1.12480551   +0.80166862   +2.91578084
 H   +2.08959757   +0.22903517   +1.57071369
 H   -0.96285948   +0.00807732   +1.82090039
 H   +1.30462433   +0.01968574   -0.66436331
 H   +2.07688827   +0.03706769   -1.02893611
22
 * E =  +2.553 kcal/mol ; (24) 117_058_276_142_177
 C   +0.00000000   +0.00000000   +0.00000000
 C   +0.00000000   +0.00000000   +1.31257603
 C   +1.21271298   +0.00000000   +2.18668178
 C   +1.35054510   +1.24175073   +3.06037883
 C   +0.16491611   +1.47740169   +3.98271634
 C   -0.95796707   +2.21069559   +3.31261171
 O   -2.15215898   +1.75846007   +3.69259414
 C   -3.26216591   +2.44591474   +3.14143029
 O   -0.82107200   +3.12302534   +2.54426045
 H   -3.23677167   +3.49360640   +3.42410997
 H   -0.81519079   +0.00171558   -0.70544718
 H   -4.14139458   +1.96234154   +3.54675585
 H   -3.25044718   +2.37554512   +2.05822202
 H   -0.21162227   +0.55097042   +4.41048347
 H   +0.46645172   +2.11001247   +4.81768718
 H   +1.48358552   +2.12364262   +2.43683409
 H   +2.25027508   +1.13377256   +3.66266475
 H   +2.10035415   -0.10378545   +1.56712027
 H   +1.17254752   -0.87843103   +2.83439620
 H   -0.96426660   -0.01081220   +1.82031902
 H   +1.30560790   +0.00026448   -0.66423374
 H   +2.07664420   -0.00153780   -1.02962501
22
 * E =  +7.716 kcal/mol ; (25) 259_069_071_191_005
 C   +0.00000000   +0.00000000   +0.00000000
 C   +0.00000000   +0.00000000   +1.31399376
 C   +1.21100561   +0.00000000   +2.19146264
 C   +1.52330912   -1.38764685   +2.74632823
 C   +2.00659621   -2.33621976   +1.66990054
 C   +3.39558525   -1.98805449   +1.20169118
 O   +3.86025041   -2.60119268   +0.10773617
 C   +3.04131260   -3.46013521   -0.65166084
 O   +4.10807907   -1.21741489   +1.77789446
 H   +2.63432749   -4.26891597   -0.04942171
 H   -0.81299630   -0.01451941   -0.70840368
 H   +3.68378871   -3.87800881   -1.41671529
 H   +2.23149796   -2.91209541   -1.12853524
 H   +2.03618882   -3.36259462   +2.03983213
 H   +1.31646006   -2.33731748   +0.82740302
 H   +0.63527028   -1.80614694   +3.21892796
 H   +2.29176719   -1.29803226   +3.50972131
 H   +1.04720528   +0.68539593   +3.02116080
 H   +2.07602466   +0.36590036   +1.64319871
 H   -0.96285069   -0.03191107   +1.82229367
 H   +1.30854894   -0.02279949   -0.63945460
 H   +2.09603542   -0.06495725   -0.97911334
22
 * E =  +8.133 kcal/mol ; (26) 243_066_181_182_001
 C   +0.00000000   +0.00000000   +0.00000000
 C   +0.00000000   +0.00000000   +1.31330898
 C   +1.20509046   +0.00000000   +2.19741160
 C   +1.29838591   -1.25093256   +3.06035766
 C   +1.51615817   -2.50113831   +2.23783765
 C   +1.58176866   -3.73280396   +3.09574484
 O   +1.80378010   -4.90549584   +2.48790638
 C   +1.98212466   -4.98287332   +1.09261962
 O   +1.44238931   -3.71527290   +4.28411073
 H   +1.11622500   -4.60539857   +0.55404173
 H   -0.81485388   +0.00179254   -0.70619353
 H   +2.10538060   -6.03533725   +0.86982466
 H   +2.87268150   -4.44690635   +0.77234070
 H   +0.71797872   -2.62141958   +1.50403314
 H   +2.43587001   -2.42108421   +1.65591029
 H   +0.39476352   -1.36827628   +3.65616545
 H   +2.11230605   -1.14567264   +3.77385198
 H   +1.15761135   +0.87131070   +2.85058954
 H   +2.10246752   +0.10755685   +1.58983154
 H   -0.96198871   -0.01189197   +1.82518296
 H   +1.30730893   -0.00577373   -0.65776600
 H   +2.08255741   -0.01707481   -1.01666358
22
 * E =  +8.290 kcal/mol ; (27) 117_178_289_173_358
 C   +0.00000000   +0.00000000   +0.00000000
 C   +0.00000000   +0.00000000   +1.31287281
 C   +1.20643726   +0.00000000   +2.19204794
 C   +1.28461819   +1.25462501   +3.04934477
 C   +2.47162283   +1.24522454   +3.99004052
 C   +2.30371492   +0.25756204   +5.11429743
 O   +3.34597069   +0.05427414   +5.92857519
 C   +4.57703942   +0.70813281   +5.72297456
 O   +1.28358484   -0.33180679   +5.32510243
 H   +5.05597034   +0.37589383   +4.80468714
 H   -0.81439321   +0.00089738   -0.70649587
 H   +5.20025156   +0.43226839   +6.56438600
 H   +4.46306768   +1.78930618   +5.70625977
 H   +3.39248064   +1.03151484   +3.44693492
 H   +2.61243217   +2.23016746   +4.43813462
 H   +0.37260049   +1.35314259   +3.63506036
 H   +1.35237982   +2.12755271   +2.40246896
 H   +2.10233480   -0.08875693   +1.57886955
 H   +1.16422602   -0.86884696   +2.84838027
 H   -0.95994536   +0.00880542   +1.82724562
 H   +1.30752672   -0.00460788   -0.66030167
 H   +2.08073713   -0.00526556   -1.02243423
22
 * E =  +8.807 kcal/mol ; (28) 121_179_182_182_001
 C   +0.00000000   +0.00000000   +0.00000000
 C   +0.00000000   +0.00000000   +1.31261394
 C   +1.20874560   +0.00000000   +2.19001392
 C   +1.24229390   +1.20178419   +3.11999895
 C   +2.45370449   +1.18106286   +4.02507947
 C   +2.46897788   +2.34813461   +4.97374245
 O   +3.51628027   +2.46729319   +5.80037934
 C   +4.58257867   +1.54770539   +5.77010539
 O   +1.59449723   +3.16215688   +5.02733086
 H   +4.24753386   +0.53395609   +5.97680989
 H   -0.81518088   +0.00526567   -0.70543983
 H   +5.26238498   +1.85983363   +6.55301591
 H   +5.10644501   +1.57261468   +4.81723861
 H   +2.48198655   +0.25880542   +4.60871939
 H   +3.37304489   +1.18603153   +3.43785262
 H   +0.34182333   +1.23321387   +3.73074576
 H   +1.24080087   +2.12194801   +2.53982403
 H   +2.10447399   -0.02669779   +1.57129858
 H   +1.20904198   -0.91492188   +2.78704485
 H   -0.96034977   +0.01127074   +1.82645072
 H   +1.30593845   +0.00208008   -0.66249729
 H   +2.07808818   +0.00640523   -1.02629983
22
 * E =  +9.095 kcal/mol ; (29) 121_174_070_187_002
 C   +0.00000000   +0.00000000   +0.00000000
 C   +0.00000000   +0.00000000   +1.31294286
 C   +1.20651289   +0.00000000   +2.19333714
 C   +1.24165656   +1.21437091   +3.10907462
 C   +2.37497158   +1.16521607   +4.11275801
 C   +3.72435572   +1.34860932   +3.46999448
 O   +4.80858298   +1.18017647   +4.23772184
 C   +4.69954074   +0.80309919   +5.59049010
 O   +3.87148305   +1.65734075   +2.32385505
 H   +4.08068169   +1.49599341   +6.15550593
 H   -0.81917997   +0.00394427   -0.70111397
 H   +5.70760850   +0.82894114   +5.98511914
 H   +4.30641745   -0.20600700   +5.69263797
 H   +2.25896525   +1.95342463   +4.85851590
 H   +2.35781622   +0.22648520   +4.66726422
 H   +0.30089930   +1.28560727   +3.65501243
 H   +1.33488507   +2.11451492   +2.50581410
 H   +2.10768842   -0.02901363   +1.58691519
 H   +1.19091481   -0.90515178   +2.80593359
 H   -0.96229553   +0.00930135   +1.82461338
 H   +1.30393873   -0.00054014   -0.66695155
 H   +2.07320074   +0.00175365   -1.03351102
22
 * E =  +9.170 kcal/mol ; (30) 000_183_290_175_359
 C   +0.00000000   +0.00000000   +0.00000000
 C   +0.00000000   +0.00000000   +1.31424134
 C   +1.16027740   +0.00000000   +2.25388095
 C   +2.52573673   -0.01047339   +1.60123374
 C   +3.65326670   -0.08961479   +2.60964096
 C   +3.80671598   +1.17325957   +3.41449879
 O   +4.70045338   +1.17224477   +4.41180233
 C   +5.45516534   +0.02383094   +4.72162324
 O   +3.18840243   +2.17435586   +3.19709853
 H   +4.82406829   -0.78090147   +5.09214556
 H   -0.83870577   +0.00728914   -0.67790039
 H   +6.13861684   +0.32414892   +5.50601157
 H   +6.02921632   -0.32561708   +3.86686606
 H   +3.50983533   -0.93494782   +3.28373942
 H   +4.60204311   -0.27316252   +2.10320158
 H   +2.64719564   +0.88582991   +0.99722742
 H   +2.60188465   -0.86275618   +0.92822593
 H   +1.05796765   -0.86890837   +2.90971565
 H   +1.07489075   +0.87471417   +2.89861521
 H   -0.97505482   +0.00525987   +1.79888223
 H   +1.21564725   +0.01261062   -0.81962355
 H   +1.88192886   +0.02326997   -1.35124284
22
 * E =  +9.252 kcal/mol ; (31) 252_300_292_174_359
 C   +0.00000000   +0.00000000   +0.00000000
 C   +0.00000000   +0.00000000   +1.31348739
 C   +1.21243009   +0.00000000   +2.18870153
 C   +1.45042906   -1.32847783   +2.89920231
 C   +0.32399967   -1.76883228   +3.81298620
 C   +0.17931752   -0.88494910   +5.02260450
 O   -0.86462041   -1.10025957   +5.83285762
 C   -1.81355672   -2.10464825   +5.55803681
 O   +0.95702263   -0.01982818   +5.30365946
 H   -2.38658265   -1.87813664   +4.66158777
 H   -0.81537339   +0.00234063   -0.70563852
 H   -2.48300275   -2.11728376   +6.40904329
 H   -1.34957782   -3.08283761   +5.45785824
 H   -0.62286012   -1.81937499   +3.27627551
 H   +0.50926160   -2.78318114   +4.17018464
 H   +2.36200433   -1.24637045   +3.48683141
 H   +1.60904623   -2.10519604   +2.15291717
 H   +1.12319138   +0.78656297   +2.93595326
 H   +2.08572183   +0.22941097   +1.58294851
 H   -0.96736784   +0.00412251   +1.81431817
 H   +1.30584531   +0.02216392   -0.66046503
 H   +2.07855997   +0.03888153   -1.02368708
22
 * E =  +9.584 kcal/mol ; (32) 248_298_185_182_001
 C   +0.00000000   +0.00000000   +0.00000000
 C   +0.00000000   +0.00000000   +1.31323084
 C   +1.21547743   +0.00000000   +2.18478547
 C   +1.41441796   -1.29600616   +2.95978237
 C   +0.28195642   -1.60580880   +3.91470441
 C   +0.57608908   -2.82000333   +4.75284340
 O   -0.36254088   -3.22171012   +5.62019680
 C   -1.59461873   -2.54887219   +5.73069863
 O   +1.60034937   -3.43338909   +4.68506533
 H   -1.46153542   -1.50572827   +6.00801441
 H   -0.81593992   -0.00574846   -0.70479750
 H   -2.13721814   -3.05589343   +6.51875723
 H   -2.16952153   -2.61192955   +4.80943279
 H   +0.09838937   -0.76014756   +4.58102158
 H   -0.65296176   -1.77063707   +3.37847653
 H   +2.34135265   -1.23957439   +3.52565156
 H   +1.53423548   -2.12545321   +2.26619775
 H   +1.14503697   +0.83156749   +2.88904716
 H   +2.09282279   +0.18214781   +1.56910132
 H   -0.96493857   -0.00391336   +1.81834042
 H   +1.30508738   +0.02293794   -0.66233423
 H   +2.07653304   +0.03947562   -1.02718249
22
 * E = +10.232 kcal/mol ; (33) 240_063_182_268_355
 C   +0.00000000   +0.00000000   +0.00000000
 C   +0.00000000   +0.00000000   +1.31286535
 C   +1.20829787   +0.00000000   +2.19178781
 C   +1.27166175   -1.22041991   +3.10022036
 C   +1.39781006   -2.52237767   +2.31646616
 C   +1.39828524   -3.69768793   +3.25340960
 O   +2.56871371   -4.16798642   +3.70541937
 C   +3.79766990   -3.65202158   +3.24993702
 O   +0.38636261   -4.19823261   +3.65083998
 H   +3.96671474   -3.89562258   +2.20351018
 H   -0.81514004   +0.00052164   -0.70561253
 H   +4.55931492   -4.13364989   +3.85075737
 H   +3.86405241   -2.57591866   +3.39214548
 H   +0.53217700   -2.64188673   +1.67250603
 H   +2.28035931   -2.49338789   +1.68203053
 H   +0.37567772   -1.27263161   +3.71774676
 H   +2.11249795   -1.10853690   +3.78470093
 H   +1.18943977   +0.89466982   +2.81478882
 H   +2.10572861   +0.05817109   +1.57794285
 H   -0.96056948   -0.01062452   +1.82690098
 H   +1.30669760   -0.00871797   -0.65931688
 H   +2.08129635   -0.02040901   -1.01882148
22
 * E = +10.337 kcal/mol ; (34) 118_178_183_270_354
 C   +0.00000000   +0.00000000   +0.00000000
 C   +0.00000000   +0.00000000   +1.31274465
 C   +1.21028167   +0.00000000   +2.18788718
 C   +1.27975522   +1.23855093   +3.06687205
 C   +2.48805478   +1.20786484   +3.99649907
 C   +2.48976186   +2.41078449   +4.89935516
 O   +3.11516706   +3.52322439   +4.49447186
 C   +3.86650306   +3.55780323   +3.30285154
 O   +1.90828410   +2.42443173   +5.94523058
 H   +4.75874876   +2.94058888   +3.38016012
 H   -0.81509873   +0.00431384   -0.70554445
 H   +4.16402383   +4.59103681   +3.17336838
 H   +3.27839747   +3.24917550   +2.44211365
 H   +2.42194070   +0.34122646   +4.64759627
 H   +3.40559698   +1.12389337   +3.41904128
 H   +0.37772691   +1.31728103   +3.67236925
 H   +1.30576076   +2.12577479   +2.43414730
 H   +2.10516080   -0.07440671   +1.57233784
 H   +1.18790013   -0.88485460   +2.82662493
 H   -0.95982185   +0.01238683   +1.82725818
 H   +1.30611043   -0.00485805   -0.66087451
 H   +2.07944446   -0.00496503   -1.02288285
22
 * E = +10.619 kcal/mol ; (35) 116_177_295_274_351
 C   +0.00000000   +0.00000000   +0.00000000
 C   +0.00000000   +0.00000000   +1.31286471
 C   +1.20753017   +0.00000000   +2.19148324
 C   +1.29821592   +1.27414587   +3.01836078
 C   +2.48755808   +1.28256794   +3.97948502
 C   +2.34211425   +0.22107261   +5.03400319
 O   +1.65291263   +0.50873537   +6.14661781
 C   +1.22168117   +1.81909464   +6.43400043
 O   +2.76767607   -0.88932796   +4.89450063
 H   +2.06527856   +2.48103132   +6.61643749
 H   -0.81560451   -0.00036917   -0.70507756
 H   +0.63344061   +1.74216963   +7.34009005
 H   +0.59923393   +2.22721551   +5.64180071
 H   +3.39712666   +1.04921472   +3.43410324
 H   +2.60408265   +2.27000652   +4.41749073
 H   +0.36778843   +1.41669797   +3.57046133
 H   +1.39077994   +2.12766127   +2.34906509
 H   +2.10444910   -0.10769807   +1.58490946
 H   +1.17285168   -0.86445243   +2.85422126
 H   -0.96191164   +0.00929107   +1.82448099
 H   +1.30629800   -0.00783464   -0.66117818
 H   +2.07861095   -0.01095042   -1.02425997
22
 * E = +10.672 kcal/mol ; (36) 000_182_298_273_352
 C   +0.00000000   +0.00000000   +0.00000000
 C   +0.00000000   +0.00000000   +1.31441112
 C   +1.15899692   +0.00000000   +2.25543492
 C   +2.52160509   -0.00187493   +1.59700542
 C   +3.66927005   -0.04219155   +2.60601971
 C   +3.66699002   +1.17279549   +3.49177726
 O   +4.30338370   +2.27568012   +3.07832021
 C   +5.10440689   +2.27890895   +1.91838682
 O   +3.07105780   +1.20945826   +4.53028814
 H   +5.98759325   +1.65741729   +2.04794539
 H   -0.83800667   +0.00304760   -0.67874718
 H   +5.41554327   +3.30697086   +1.78011592
 H   +4.55199510   +1.95531793   +1.04025279
 H   +3.54500604   -0.89631140   +3.26522374
 H   +4.61539423   -0.15760777   +2.08453958
 H   +2.61292792   +0.87070715   +0.95042588
 H   +2.61151268   -0.87000265   +0.94649848
 H   +1.06802985   -0.86953991   +2.90962107
 H   +1.06120493   +0.85825288   +2.92096667
 H   -0.97490948   +0.00286036   +1.79890586
 H   +1.21405761   -0.00161099   -0.82015662
 H   +1.88242696   -0.00216863   -1.35104854
22
 * E = +10.715 kcal/mol ; (37) 239_181_182_271_354
 C   +0.00000000   +0.00000000   +0.00000000
 C   +0.00000000   +0.00000000   +1.31265726
 C   +1.20979482   +0.00000000   +2.18874642
 C   +1.25061614   -1.20688166   +3.11219393
 C   +2.47406707   -1.18318684   +4.02230984
 C   +2.51066607   -2.40909813   +4.89283837
 O   +1.89337406   -2.37636053   +6.08169237
 C   +1.33049859   -1.18992515   +6.59093523
 O   +3.02676540   -3.42922035   +4.54048819
 H   +2.09892521   -0.45780950   +6.82905641
 H   -0.81635223   -0.00282933   -0.70408524
 H   +0.82122551   -1.47425917   +7.50350141
 H   +0.60806877   -0.75481040   +5.90454279
 H   +3.37519828   -1.21422053   +3.41732833
 H   +2.49315452   -0.26449119   +4.60407450
 H   +1.26852152   -2.12105839   +2.52206778
 H   +0.33676179   -1.24124786   +3.70760020
 H   +1.21050840   +0.91062779   +2.79181575
 H   +2.10685944   +0.02698734   +1.57308783
 H   -0.96069907   -0.00690081   +1.82629231
 H   +1.30493025   -0.00364162   -0.66288167
 H   +2.07669651   -0.00841080   -1.02678938
22
 * E = +10.763 kcal/mol ; (38) 242_186_300_274_352
 C   +0.00000000   +0.00000000   +0.00000000
 C   +0.00000000   +0.00000000   +1.31306632
 C   +1.20914160   +0.00000000   +2.18999012
 C   +1.27444217   -1.25390957   +3.04948645
 C   +2.41935747   -1.23600478   +4.06165868
 C   +3.75765691   -1.11742270   +3.38507065
 O   +4.36994308   -2.23137620   +2.96344847
 C   +3.88078748   -3.51311487   +3.28520397
 O   +4.27299933   -0.05969121   +3.16418457
 H   +3.96086798   -3.70906498   +4.35217841
 H   -0.81785024   -0.00182100   -0.70261716
 H   +4.51378557   -4.21120056   +2.75149329
 H   +2.85236361   -3.65063302   +2.96196876
 H   +2.32672551   -0.35975141   +4.69645180
 H   +2.36668350   -2.11665808   +4.69632428
 H   +1.34947707   -2.12553582   +2.39959317
 H   +0.34215898   -1.36530955   +3.60287847
 H   +1.18130122   +0.87456149   +2.84199464
 H   +2.10672808   +0.09565070   +1.58450729
 H   -0.96185114   -0.01043564   +1.82508619
 H   +1.30428681   +0.00607508   -0.66452503
 H   +2.07572844   +0.00748978   -1.02867166
22
 * E = +11.108 kcal/mol ; (39) 240_069_070_087_008
 C   +0.00000000   +0.00000000   +0.00000000
 C   +0.00000000   +0.00000000   +1.31348961
 C   +1.20695435   +0.00000000   +2.19515126
 C   +1.25695732   -1.22979974   +3.09447226
 C   +1.52637088   -2.52482766   +2.32537143
 C   +2.94109002   -2.55688354   +1.82036595
 O   +3.90097044   -3.03719238   +2.62526166
 C   +3.59730223   -3.65805692   +3.85241810
 O   +3.25769376   -2.11820496   +0.75266756
 H   +3.02058267   -3.00903818   +4.50688124
 H   -0.82420275   +0.00162189   -0.69557904
 H   +4.55178507   -3.86978002   +4.31858815
 H   +3.06361805   -4.59381759   +3.70112470
 H   +1.30370331   -3.38583160   +2.94903699
 H   +0.88386074   -2.56479730   +1.45051190
 H   +0.30728177   -1.33246956   +3.61938461
 H   +2.01812026   -1.08306477   +3.86065744
 H   +1.17995178   +0.88781020   +2.82766357
 H   +2.10662599   +0.06097166   +1.58689412
 H   -0.96107963   -0.01044898   +1.82813116
 H   +1.30265927   +0.02820774   -0.67699787
 H   +2.06739774   +0.04485107   -1.04530569
22
 * E = +11.411 kcal/mol ; (40) 245_298_183_088_007
 C   +0.00000000   +0.00000000   +0.00000000
 C   +0.00000000   +0.00000000   +1.31296087
 C   +1.21745689   +0.00000000   +2.18072221
 C   +1.37352202   -1.26756615   +3.01127563
 C   +0.22552436   -1.49083077   +3.99215970
 C   +0.47554406   -2.72257251   +4.81796463
 O   +1.17142639   -2.60528431   +5.95719990
 C   +1.54574631   -1.34799848   +6.47013580
 O   +0.12184665   -3.81086690   +4.46930888
 H   +2.11886498   -0.76842474   +5.75047951
 H   -0.81672985   -0.00450652   -0.70374376
 H   +2.16951612   -1.55559526   +7.33082171
 H   +0.67727651   -0.77813700   +6.79302572
 H   +0.08028122   -0.60637521   +4.60912296
 H   -0.69538549   -1.67817903   +3.44966895
 H   +2.31807385   -1.21270835   +3.55288328
 H   +1.44186568   -2.13178290   +2.35343040
 H   +1.17536393   +0.86126695   +2.85080391
 H   +2.09892614   +0.12697289   +1.55682418
 H   -0.96322132   -0.00110462   +1.81995602
 H   +1.30414693   +0.01246579   -0.66393421
 H   +2.07616588   +0.02173202   -1.02853943
22
 * E = +11.768 kcal/mol ; (41) 251_275_054_085_008
 C   +0.00000000   +0.00000000   +0.00000000
 C   +0.00000000   +0.00000000   +1.31358472
 C   +1.23032319   +0.00000000   +2.16775856
 C   +1.48062929   -1.32215023   +2.89502675
 C   +0.74962109   -1.47553330   +4.23019943
 C   -0.73285518   -1.25214425   +4.12730034
 O   -1.52267627   -2.26915483   +3.76608682
 C   -1.02387614   -3.58135935   +3.63424553
 O   -1.22955268   -0.17733099   +4.31350902
 H   -0.19937488   -3.63383893   +2.92902853
 H   -0.81840797   -0.00025743   -0.70218867
 H   -1.84891743   -4.17209543   +3.25619110
 H   -0.71441884   -3.98218589   +4.59678822
 H   +0.97649209   -2.44806111   +4.66037382
 H   +1.10775547   -0.71531460   +4.91778729
 H   +2.54388198   -1.40675361   +3.11252900
 H   +1.24121538   -2.14574277   +2.22396015
 H   +1.15701345   +0.80509466   +2.89960994
 H   +2.08764647   +0.21524772   +1.53479572
 H   -0.95865568   +0.00471526   +1.82561360
 H   +1.30275865   +0.02583254   -0.66872109
 H   +2.07487878   +0.04376827   -1.03513813
