22
 * E =  +0.000 kcal/mol ; (1) 179_171_293_296_338
 C   +0.00000000   +0.00000000   +0.00000000
 C   +0.00000000   +0.00000000   +1.49766962
 O   +1.23688828   +0.00000000   +1.98683729
 O   -0.97763144   +0.02187780   +2.19728390
 C   +1.33203825   +0.02238570   +3.39961397
 H   +2.39047408   +0.01986273   +3.62528662
 H   +0.85812772   +0.91412815   +3.79807135
 H   +0.84892870   -0.85190374   +3.82442649
 C   -1.37693637   -0.23013061   -0.59004191
 C   -1.93859844   -1.61763651   -0.33514169
 C   -1.19498144   -2.75768185   -0.96246769
 C   -0.37267361   -2.67622436   -2.01759764
 H   +0.72140286   -0.74255276   -0.33442544
 H   -2.06374593   +0.49755527   -0.16332672
 H   -2.96346104   -1.65590680   -0.71008005
 H   -1.49929632   -3.74333561   -0.63265840
 H   +0.05168319   -3.56299542   -2.46106737
 H   -0.07249737   -1.72833553   -2.43922520
 H   +0.39593290   +0.96671997   -0.31207016
 H   -1.33895156   -0.03336672   -1.66073905
 H   +0.12633677   -2.96244881   +0.49328438
 H   -2.01469608   -1.78119832   +0.73786765
22
 * E =  +0.104 kcal/mol ; (2) 178_171_291_295_102
 C   +0.00000000   +0.00000000   +0.00000000
 C   +0.00000000   +0.00000000   +1.49744731
 O   +1.23728994   +0.00000000   +1.98841723
 O   -0.97747496   +0.01596538   +2.19700796
 C   +1.33136621   +0.03606287   +3.40126323
 H   +2.38959913   +0.03431257   +3.62784665
 H   +0.85868922   +0.93251718   +3.79034700
 H   +0.84637163   -0.83238907   +3.83592084
 C   -1.37601967   -0.22582610   -0.58884651
 C   -1.92080842   -1.63509048   -0.36915652
 C   -1.10574763   -2.67233325   -1.07416182
 C   -0.21287120   -3.46800977   -0.46778689
 H   +0.71420803   -0.74810023   -0.33926982
 H   -2.07049576   +0.48559599   -0.14703920
 H   -2.94688627   -1.66509907   -0.73059866
 H   -1.10065529   -2.62305837   -2.15731063
 H   +0.41974737   -4.13822181   -1.02865353
 H   -0.13915404   -3.50377264   +0.60986726
 H   +0.40344234   +0.96328712   -0.31242623
 H   -1.33740439   -0.01428082   -1.65721964
 H   -2.56150566   -3.94102253   -1.37034752
 H   -1.95541679   -1.84751214   +0.69760012
22
 * E =  +0.251 kcal/mol ; (3) 178_167_290_178_098
 C   +0.00000000   +0.00000000   +0.00000000
 C   +0.00000000   +0.00000000   +1.49838651
 O   +1.23599911   +0.00000000   +1.99096750
 O   -0.97963240   +0.01997571   +2.19409958
 C   +1.32694140   +0.04146288   +3.40444482
 H   +2.38455744   +0.03345385   +3.63348663
 H   +0.85943129   +0.94300775   +3.78783415
 H   +0.83446588   -0.82184227   +3.84066568
 C   -1.36032143   -0.30889679   -0.58825977
 C   -1.78090055   -1.75621972   -0.36826288
 C   -3.14980998   -2.01345666   -0.91160829
 C   -3.39007561   -2.56079516   -2.11065029
 H   +0.76023595   -0.69964242   -0.34385897
 H   -2.09803454   +0.35445682   -0.13944139
 H   -1.76004624   -1.96914392   +0.69878477
 H   -3.96844290   -1.54199502   -0.38124059
 H   -4.39101131   -2.64016398   -2.50474446
 H   -2.59140835   -2.98674661   -2.70113872
 H   +0.34231295   +0.98788920   -0.30932625
 H   -1.34462188   -0.09650338   -1.65573566
 H   -3.55628178   -3.53907940   +0.26141269
 H   -1.06623784   -2.42369197   -0.85059708
22
 * E =  +0.254 kcal/mol ; (4) 182_190_070_187_220
 C   +0.00000000   +0.00000000   +0.00000000
 C   +0.00000000   +0.00000000   +1.49832322
 O   +1.23658839   +0.00000000   +1.98988647
 O   -0.97870246   -0.01856822   +2.19566500
 C   +1.32959339   -0.04086540   +3.40308722
 H   +2.38764272   -0.04173906   +3.63030183
 H   +0.84576127   +0.82714921   +3.83974981
 H   +0.85491787   -0.93789018   +3.78822546
 C   -1.36973806   +0.25168667   -0.59298688
 C   -1.84353455   +1.68054759   -0.38731010
 C   -3.25647494   +1.93416171   -0.80097861
 C   -3.66845619   +3.04056137   -1.43485760
 H   +0.38579223   -0.97131385   -0.30988806
 H   -1.34366436   +0.02710132   -1.65751260
 H   -1.18153851   +2.37355601   -0.90741208
 H   -3.99994548   +1.26792268   -0.37960616
 H   -4.71419083   +3.22342331   -1.62515561
 H   -2.96234321   +3.76580369   -1.81257335
 H   +0.73160874   +0.73096601   -0.34188085
 H   -2.08408523   -0.43475850   -0.14070638
 H   -3.39380291   +0.66572756   -2.33386987
 H   -1.77520185   +1.91009439   +0.67770647
22
 * E =  +0.266 kcal/mol ; (5) 182_192_069_177_098
 C   +0.00000000   +0.00000000   +0.00000000
 C   +0.00000000   +0.00000000   +1.49842447
 O   +1.23714430   +0.00000000   +1.98872333
 O   -0.97804000   -0.01987123   +2.19629456
 C   +1.33158261   -0.04148711   +3.40182071
 H   +2.38983413   -0.03874422   +3.62807350
 H   +0.84502608   +0.82454954   +3.83935031
 H   +0.86052801   -0.94050198   +3.78682311
 C   -1.36500734   +0.28015142   -0.59183795
 C   -1.82849528   +1.71203685   -0.35831727
 C   -3.14677740   +1.97254508   -1.01482483
 C   -4.32102071   +1.92670874   -0.37218487
 H   +0.36498216   -0.97977341   -0.30909641
 H   -1.32946710   +0.07800040   -1.66200379
 H   -1.07738518   +2.39901676   -0.74915609
 H   -3.14864102   +1.99837186   -2.09829271
 H   -5.25688183   +2.02438518   -0.89972218
 H   -4.36436308   +1.83165098   +0.70312945
 H   +0.74560957   +0.71625916   -0.34208778
 H   -2.09221764   -0.40482265   -0.16067078
 H   -2.90929293   +3.92319532   -1.19161229
 H   -1.91147741   +1.89346847   +0.71121874
22
 * E =  +0.286 kcal/mol ; (6) 178_169_291_186_338
 C   +0.00000000   +0.00000000   +0.00000000
 C   +0.00000000   +0.00000000   +1.49815534
 O   +1.23664700   +0.00000000   +1.98974329
 O   -0.97866382   +0.01838952   +2.19538550
 C   +1.32930987   +0.03745450   +3.40305958
 H   +2.38726292   +0.03424133   +3.63070023
 H   +0.85750422   +0.93511197   +3.79025793
 H   +0.84228096   -0.82993773   +3.83743855
 C   -1.36706398   -0.26622723   -0.59280035
 C   -1.84169804   -1.68460021   -0.35320442
 C   -3.12965210   -2.03667796   -1.02983065
 C   -4.06277777   -1.16374365   -1.43300807
 H   +0.73807107   -0.72390079   -0.34231690
 H   -2.07699529   +0.43841957   -0.16380718
 H   -1.96813175   -1.84540692   +0.71912126
 H   -3.38347681   -3.08929120   -1.02841921
 H   -5.00160750   -1.50493144   -1.83950340
 H   -3.89786535   -0.09756034   -1.40938406
 H   +0.37565257   +0.97546705   -0.30963394
 H   -1.33000652   -0.07878068   -1.66582644
 H   -2.28652444   -2.40725261   -2.77689464
 H   -1.07255454   -2.38578564   -0.67934436
22
 * E =  +0.308 kcal/mol ; (7) 179_174_179_294_102
 C   +0.00000000   +0.00000000   +0.00000000
 C   +0.00000000   +0.00000000   +1.49553607
 O   +1.23799799   +0.00000000   +1.98681647
 O   -0.97784946   +0.00603481   +2.19366797
 C   +1.33029226   +0.01774272   +3.40006300
 H   +2.38827919   +0.01604116   +3.62801625
 H   +0.85475727   +0.90783371   +3.80012255
 H   +0.84703579   -0.85761034   +3.82269523
 C   -1.38695228   -0.15122435   -0.58191347
 C   -1.39736970   -0.13487331   -2.10657743
 C   -0.99454382   +1.19448509   -2.66304798
 C   +0.21680491   +1.46560786   -3.16934801
 H   +0.66278730   -0.79710177   -0.33653833
 H   -1.82284497   -1.08462714   -0.23102656
 H   -2.39971685   -0.38573426   -2.44798424
 H   -1.66245423   +2.02090909   -2.44865311
 H   +0.49077241   +2.46358383   -3.47383234
 H   +0.93986759   +0.68057934   -3.33931120
 H   +0.46870386   +0.92734463   -0.32943641
 H   -2.02773232   +0.63964791   -0.19474444
 H   -2.03821586   +1.06883416   -4.30981304
 H   -0.73070928   -0.90679783   -2.49197410
22
 * E =  +0.398 kcal/mol ; (8) 179_173_179_293_339
 C   +0.00000000   +0.00000000   +0.00000000
 C   +0.00000000   +0.00000000   +1.49541577
 O   +1.23704652   +0.00000000   +1.98820490
 O   -0.97867598   +0.00837470   +2.19296127
 C   +1.32770887   +0.02125712   +3.40139754
 H   +2.38544581   +0.01754185   +3.63049151
 H   +0.85404992   +0.91363804   +3.79865541
 H   +0.84166555   -0.85169020   +3.82581789
 C   -1.38835102   -0.17297803   -0.57733474
 C   -1.40804214   -0.15949214   -2.09407868
 C   -1.04982488   +1.14190018   -2.74772828
 C   -1.11096584   +2.34914561   -2.16998676
 H   +0.67398376   -0.78547721   -0.34024404
 H   -1.80075758   -1.11698021   -0.22694649
 H   -2.40916910   -0.42709688   -2.43787815
 H   -0.91180552   +1.09787405   -3.82084083
 H   -0.92577310   +3.24646337   -2.73877339
 H   -1.30922510   +2.47061935   -1.11539871
 H   +0.45775097   +0.93330970   -0.32760034
 H   -2.04709703   +0.59544108   -0.17725454
 H   +0.90486041   +0.85526579   -2.75123156
 H   -0.74987644   -0.93964433   -2.47784917
22
 * E =  +0.519 kcal/mol ; (9) 181_184_182_178_100
 C   +0.00000000   +0.00000000   +0.00000000
 C   +0.00000000   +0.00000000   +1.49671474
 O   +1.23826154   +0.00000000   +1.98660738
 O   -0.97788595   -0.00538240   +2.19388574
 C   +1.33197921   -0.01312317   +3.40008932
 H   +2.39015895   -0.01155117   +3.62694026
 H   +0.84973355   +0.86412144   +3.81984346
 H   +0.85595888   -0.90149890   +3.80330367
 C   -1.39059871   +0.10380308   -0.58445387
 C   -1.37447525   +0.04777360   -2.10508108
 C   -2.75827500   +0.10146495   -2.66974290
 C   -3.32139982   +1.21060414   -3.16654542
 H   +0.49780209   -0.91436649   -0.32524265
 H   -2.00653010   -0.70127953   -0.18656674
 H   -0.87870951   -0.86869406   -2.42531146
 H   -3.38941000   -0.75626175   -2.47002083
 H   -4.35552749   +1.23010313   -3.47231744
 H   -2.74331032   +2.11059027   -3.31991093
 H   +0.63905982   +0.81636144   -0.33547602
 H   -1.85941241   +1.02875972   -0.25424902
 H   -2.34870241   -0.85863158   -4.33667607
 H   -0.78868192   +0.87708870   -2.50196037
22
 * E =  +0.528 kcal/mol ; (10) 181_184_182_184_340
 C   +0.00000000   +0.00000000   +0.00000000
 C   +0.00000000   +0.00000000   +1.49665773
 O   +1.23805835   +0.00000000   +1.98695004
 O   -0.97802065   -0.00514608   +2.19377768
 C   +1.33110840   -0.01140582   +3.40046587
 H   +2.38917704   -0.00924073   +3.62786766
 H   +0.84840934   +0.86623008   +3.81886872
 H   +0.85510155   -0.89940821   +3.80453743
 C   -1.39076754   +0.10570227   -0.58319392
 C   -1.37363809   +0.04912452   -2.09540672
 C   -2.70817094   +0.24104604   -2.74795820
 C   -3.89647061   +0.07666089   -2.15102196
 H   +0.49770884   -0.91470806   -0.32466344
 H   -2.00451076   -0.69570356   -0.17688620
 H   -0.97708507   -0.91530258   -2.42423873
 H   -2.68750875   +0.34874770   -3.82515445
 H   -4.81315021   +0.15513276   -2.71373303
 H   -3.98624239   -0.08563114   -1.08791337
 H   +0.63919113   +0.81645999   -0.33474066
 H   -1.85304221   +1.03683992   -0.25704528
 H   -2.61691493   +2.20582964   -2.72296955
 H   -0.68222953   +0.79715464   -2.48446835
22
 * E =  +0.552 kcal/mol ; (11) 178_167_294_302_226
 C   +0.00000000   +0.00000000   +0.00000000
 C   +0.00000000   +0.00000000   +1.49749132
 O   +1.23613121   +0.00000000   +1.99107621
 O   -0.97913819   +0.02088681   +2.19468869
 C   +1.32683142   +0.04883637   +3.40410624
 H   +2.38449161   +0.04721167   +3.63316671
 H   +0.85483614   +0.94983121   +3.78330765
 H   +0.83897130   -0.81472172   +3.84514129
 C   -1.35391866   -0.32494556   -0.59567536
 C   -1.83741645   -1.74291460   -0.32249785
 C   -0.94420164   -2.84563721   -0.79347809
 C   -1.37889277   -3.92514715   -1.45817806
 H   +0.77866497   -0.67391866   -0.35204602
 H   -2.08789827   +0.36952432   -0.19197487
 H   -2.82223487   -1.87289611   -0.76818407
 H   +0.06503644   -2.86349848   -0.39949165
 H   -0.71868196   -4.74397870   -1.69702316
 H   -2.39819254   -3.99213220   -1.81009644
 H   +0.31997401   +0.99595096   -0.30779363
 H   -1.30473204   -0.16121250   -1.67095233
 H   -0.01624723   -1.93146994   -2.31260808
 H   -1.96861941   -1.85304845   +0.75526052
22
 * E =  +0.600 kcal/mol ; (12) 178_169_293_190_222
 C   +0.00000000   +0.00000000   +0.00000000
 C   +0.00000000   +0.00000000   +1.49825748
 O   +1.23767227   +0.00000000   +1.98851122
 O   -0.97749309   +0.01828392   +2.19668609
 C   +1.33174666   +0.03914296   +3.40158047
 H   +2.38996471   +0.03720964   +3.62813848
 H   +0.85958172   +0.93682670   +3.78827759
 H   +0.84615540   -0.82820131   +3.83768224
 C   -1.36683692   -0.26290298   -0.59524995
 C   -1.86258243   -1.67563811   -0.33409348
 C   -3.08705034   -2.05882976   -1.10105479
 C   -4.11119564   -2.74980831   -0.58201601
 H   +0.73781700   -0.72536726   -0.34056758
 H   -2.08164241   +0.44953210   -0.18873403
 H   -2.03832600   -1.81072957   +0.73104395
 H   -3.03466321   -1.93806716   -2.17712394
 H   -4.93071043   -3.08788737   -1.19646090
 H   -4.17043713   -2.94897587   +0.47794577
 H   +0.37749042   +0.97484894   -0.30937458
 H   -1.31901553   -0.08556740   -1.66954612
 H   -3.96787445   -0.28426261   -1.24356234
 H   -1.07205295   -2.37652720   -0.61817272
22
 * E =  +0.838 kcal/mol ; (13) 182_191_069_180_340
 C   +0.00000000   +0.00000000   +0.00000000
 C   +0.00000000   +0.00000000   +1.49837872
 O   +1.23846012   +0.00000000   +1.98727811
 O   -0.97676580   -0.02018389   +2.19712085
 C   +1.33338844   -0.04459953   +3.40014752
 H   +2.39169749   -0.04066076   +3.62628011
 H   +0.84521221   +0.81930151   +3.84012816
 H   +0.86387132   -0.94526324   +3.78320454
 C   -1.36557120   +0.26249359   -0.59908799
 C   -1.83673083   +1.68466168   -0.37869796
 C   -3.18476169   +2.00136897   -0.94993709
 C   -3.80921463   +1.31095272   -1.91449255
 H   +0.37878891   -0.97474855   -0.30793190
 H   -1.31550178   +0.04850885   -1.66549545
 H   -1.11857006   +2.38062503   -0.82169388
 H   -3.58545264   +2.96953890   -0.67696373
 H   -4.74345962   +1.65822609   -2.32639054
 H   -3.44062114   +0.36210254   -2.27249277
 H   +0.73813022   +0.72461854   -0.34112710
 H   -2.08976523   -0.42464374   -0.16328106
 H   -4.18519787   +1.36218880   +0.60700669
 H   -1.84775228   +1.89687835   +0.68888159
22
 * E =  +0.861 kcal/mol ; (14) 178_284_297_293_095
 C   +0.00000000   +0.00000000   +0.00000000
 C   +0.00000000   +0.00000000   +1.49533154
 O   +1.23681230   +0.00000000   +1.99080757
 O   -0.97812345   +0.03380915   +2.19439962
 C   +1.32751014   +0.04639059   +3.40362931
 H   +2.38498862   +0.03698982   +3.63356994
 H   +0.86155675   +0.94997803   +3.78424900
 H   +0.83306409   -0.81426329   +3.84297098
 C   +0.34987562   +1.37876028   -0.55106873
 C   -0.65326012   +2.46548979   -0.17272996
 C   -1.98689993   +2.25640392   -0.81975471
 C   -3.01019662   +1.62370151   -0.22989770
 H   -0.99012953   -0.30147390   -0.32705590
 H   +1.33895898   +1.66207595   -0.19457884
 H   -0.24700213   +3.43024581   -0.47016679
 H   -2.04049686   +2.45794637   -1.88339970
 H   -3.92363479   +1.41565355   -0.76544111
 H   -2.96039840   +1.33312832   +0.80982480
 H   +0.72791146   -0.72748399   -0.35059369
 H   +0.41655379   +1.30661331   -1.63631959
 H   -2.56562347   +4.13683130   -0.66240658
 H   -0.77830107   +2.49645601   +0.90925263
22
 * E =  +0.884 kcal/mol ; (15) 181_185_187_302_225
 C   +0.00000000   +0.00000000   +0.00000000
 C   +0.00000000   +0.00000000   +1.49679025
 O   +1.23866634   +0.00000000   +1.98591760
 O   -0.97695590   -0.00616352   +2.19531298
 C   +1.33318178   -0.01118781   +3.39918213
 H   +2.39150986   -0.00734861   +3.62544687
 H   +0.84968864   +0.86581389   +3.81798595
 H   +0.85912858   -0.89987488   +3.80414980
 C   -1.39167916   +0.11681023   -0.57969096
 C   -1.42784734   -0.05510432   -2.09035163
 C   -0.58903796   +0.89608426   -2.88385520
 C   -1.01596578   +1.52228817   -3.98872496
 H   +0.48955290   -0.91973741   -0.32494418
 H   -2.02882954   -0.63554600   -0.11979168
 H   -2.45840165   +0.01065038   -2.43507611
 H   +0.47097111   +0.91658012   -2.66073039
 H   -0.35206719   +2.12775162   -4.58536767
 H   -2.05104665   +1.47386276   -4.29457260
 H   +0.64492155   +0.81456820   -0.32766731
 H   -1.81387131   +1.08273077   -0.30741467
 H   -0.58252654   +2.46357090   -1.64031761
 H   -1.08747552   -1.06634996   -2.32989258
22
 * E =  +0.888 kcal/mol ; (16) 182_196_066_061_093
 C   +0.00000000   +0.00000000   +0.00000000
 C   +0.00000000   +0.00000000   +1.49800462
 O   +1.23591103   +0.00000000   +1.99186424
 O   -0.97981508   -0.02146883   +2.19353764
 C   +1.32559291   -0.04895769   +3.40518736
 H   +2.38298001   -0.04086012   +3.63529651
 H   +0.83148487   +0.81126684   +3.84563339
 H   +0.85884815   -0.95317133   +3.78324775
 C   -1.34395630   +0.37590701   -0.58987496
 C   -1.76297074   +1.81811918   -0.31808287
 C   -0.81114522   +2.81704567   -0.90054894
 C   -0.95545903   +3.36351988   -2.11530985
 H   +0.28155551   -1.00783596   -0.30685231
 H   -1.30902913   +0.20913274   -1.66520237
 H   -1.85434633   +1.96114373   +0.75660208
 H   +0.13155422   +2.95786183   -0.38559383
 H   -0.20304391   +4.01147706   -2.53680472
 H   -1.85585458   +3.21070321   -2.69333585
 H   +0.80154349   +0.64719549   -0.34926610
 H   -2.10271348   -0.28767786   -0.17993782
 H   -1.38887189   +4.30972588   +0.25273509
 H   -2.75226345   +1.97991720   -0.74242195
22
 * E =  +0.920 kcal/mol ; (17) 179_174_178_187_218
 C   +0.00000000   +0.00000000   +0.00000000
 C   +0.00000000   +0.00000000   +1.49663143
 O   +1.23869296   +0.00000000   +1.98631795
 O   -0.97738368   +0.00759568   +2.19414730
 C   +1.33210098   +0.01706120   +3.39972658
 H   +2.39020615   +0.01111452   +3.62697087
 H   +0.86029480   +0.90896763   +3.80017080
 H   +0.84536942   -0.85645031   +3.82205313
 C   -1.38708787   -0.13723832   -0.58599038
 C   -1.36441735   -0.09298833   -2.10324659
 C   -2.71153628   -0.05548604   -2.75097456
 C   -3.01684337   -0.69795780   -3.88622876
 H   +0.65909090   -0.80025555   -0.33546755
 H   -1.83687154   -1.06808173   -0.24654134
 H   -0.79510887   -0.93445358   -2.49856149
 H   -3.39892656   +0.69373499   -2.37605902
 H   -3.97166723   -0.56316915   -4.36919128
 H   -2.33328328   -1.40702366   -4.33026083
 H   +0.47638336   +0.92673131   -0.32323864
 H   -2.02228095   +0.65745169   -0.19711858
 H   -3.71768086   -1.20575367   -1.47434147
 H   -0.83165609   +0.80979896   -2.41498278
22
 * E =  +0.998 kcal/mol ; (18) 180_177_175_061_093
 C   +0.00000000   +0.00000000   +0.00000000
 C   +0.00000000   +0.00000000   +1.49676167
 O   +1.23833359   +0.00000000   +1.98655673
 O   -0.97754770   +0.00397632   +2.19456332
 C   +1.33235798   +0.00941172   +3.39997392
 H   +2.39059471   +0.00681362   +3.62659352
 H   +0.85692219   +0.89695740   +3.80573570
 H   +0.84987828   -0.86873205   +3.81758308
 C   -1.39523843   -0.07444239   -0.57972181
 C   -1.42097937   +0.05137753   -2.09857059
 C   -0.66292642   -1.04287814   -2.78563337
 C   -1.22370874   -2.18423999   -3.20636546
 H   +0.62175915   -0.83165428   -0.32866728
 H   -1.85866268   -1.01332375   -0.28217932
 H   -1.01310733   +1.02016620   -2.38651927
 H   +0.41819370   -0.97786548   -2.76742144
 H   -0.63110743   -2.98826563   -3.61361469
 H   -2.29595932   -2.31861110   -3.19198789
 H   +0.51685830   +0.90370525   -0.32640028
 H   -2.00145428   +0.71640264   -0.14262608
 H   -0.46405765   -0.07280032   -4.49460761
 H   -2.45563910   +0.03440043   -2.43615619
22
 * E =  +1.111 kcal/mol ; (19) 181_185_072_077_238
 C   +0.00000000   +0.00000000   +0.00000000
 C   +0.00000000   +0.00000000   +1.49743817
 O   +1.23763008   +0.00000000   +1.98763372
 O   -0.97667613   -0.00955332   +2.19868888
 C   +1.33247667   -0.02351460   +3.40051482
 H   +2.39086062   -0.02117436   +3.62646193
 H   +0.84880877   +0.84935847   +3.82781539
 H   +0.85897083   -0.91589426   +3.79790143
 C   -1.39085216   +0.12612846   -0.58426820
 C   -1.98295228   +1.52176375   -0.41886155
 C   -1.45917529   +2.56271522   -1.35895034
 C   -0.87467823   +3.70283181   -0.95814341
 H   +0.48259746   -0.92346693   -0.31859733
 H   -1.36014590   -0.13691667   -1.64070269
 H   -1.83976709   +1.84919777   +0.60953392
 H   -1.77387615   +2.47833980   -2.39240891
 H   -0.59204938   +4.47042526   -1.66145657
 H   -0.63439029   +3.87025983   +0.08180357
 H   +0.65378081   +0.80299055   -0.33982630
 H   -2.04140113   -0.59171527   -0.08986182
 H   +0.07558672   +1.71571951   -2.20447152
 H   -3.06083827   +1.45850462   -0.57111315
22
 * E =  +1.184 kcal/mol ; (20) 181_311_181_294_102
 C   +0.00000000   +0.00000000   +0.00000000
 C   +0.00000000   +0.00000000   +1.49560252
 O   +1.23570607   +0.00000000   +1.99565348
 O   -0.97977974   -0.01450071   +2.19074706
 C   +1.31786542   -0.02552780   +3.40935183
 H   +2.37409141   -0.02085836   +3.64549767
 H   +0.82730486   +0.84513074   +3.83307490
 H   +0.84248546   -0.91974258   +3.80023259
 C   +0.91369270   +1.04657672   -0.61381534
 C   +0.88387864   +1.03282607   -2.13882511
 C   +1.45484312   -0.22890426   -2.70476720
 C   +0.71758247   -1.24200958   -3.18140757
 H   -1.02965193   +0.14104191   -0.31626267
 H   +0.61416171   +2.03547137   -0.26839852
 H   +1.45035659   +1.88790665   -2.50274185
 H   +2.50974088   -0.39774812   -2.52133506
 H   +1.16949495   -2.17040120   -3.49374329
 H   -0.34954159   -1.14043369   -3.31825623
 H   +0.30756983   -0.99339672   -0.32775917
 H   +1.93129455   +0.88886831   -0.26058205
 H   +2.09906259   +0.55173537   -4.37550661
 H   -0.14005095   +1.15915330   -2.49059425
22
 * E =  +1.190 kcal/mol ; (21) 182_320_298_179_100
 C   +0.00000000   +0.00000000   +0.00000000
 C   +0.00000000   +0.00000000   +1.49909058
 O   +1.23372739   +0.00000000   +2.00261719
 O   -0.98261058   -0.02487567   +2.18928942
 C   +1.31173088   -0.03655069   +3.41680648
 H   +2.36707795   -0.02444190   +3.65626918
 H   +0.81195261   +0.82631639   +3.84564786
 H   +0.84298672   -0.93820384   +3.79830570
 C   +1.06484812   +0.87874255   -0.63178198
 C   +0.89917759   +2.34919960   -0.27296779
 C   +1.97713539   +3.18547989   -0.88481973
 C   +1.82023634   +3.90963327   -2.00098932
 H   -0.99897428   +0.29177794   -0.31173514
 H   +2.04844502   +0.53478051   -0.31684660
 H   +0.92037993   +2.45504984   +0.81158064
 H   +2.97994653   +3.02112532   -0.50884482
 H   +2.64994638   +4.42069394   -2.46337000
 H   +0.84539626   +4.04548439   -2.44694671
 H   +0.14186894   -1.03533498   -0.31115861
 H   +1.01924534   +0.76438218   -1.71346870
 H   +1.94648163   +4.60730069   +0.46941282
 H   -0.07494078   +2.70443912   -0.60851894
22
 * E =  +1.199 kcal/mol ; (22) 178_282_305_305_226
 C   +0.00000000   +0.00000000   +0.00000000
 C   +0.00000000   +0.00000000   +1.49458872
 O   +1.23401794   +0.00000000   +1.99540470
 O   -0.98279435   +0.03733755   +2.18700138
 C   +1.31750388   +0.04662179   +3.40886521
 H   +2.37376261   +0.03643880   +3.64419658
 H   +0.85006000   +0.95046437   +3.78703356
 H   +0.82008045   -0.81365475   +3.84549164
 C   +0.28384104   +1.39237899   -0.55728493
 C   -0.64925104   +2.47713408   -0.03624213
 C   -2.11213877   +2.22630473   -0.21788073
 C   -2.97048800   +3.14681438   -0.67652081
 H   -0.97481184   -0.34892841   -0.32740043
 H   +1.30989322   +1.66767434   -0.31881138
 H   -0.38509370   +3.42571645   -0.50107721
 H   -2.50561746   +1.32711762   +0.24005032
 H   -4.03265715   +2.96120480   -0.70230632
 H   -2.62345769   +4.09148876   -1.07009562
 H   +0.75570162   -0.69397898   -0.35845325
 H   +0.20819230   +1.33991243   -1.64216797
 H   -2.06774233   +1.07521058   -1.86822764
 H   -0.47772027   +2.60092664   +1.03605744
22
 * E =  +1.235 kcal/mol ; (23) 182_319_298_184_338
 C   +0.00000000   +0.00000000   +0.00000000
 C   +0.00000000   +0.00000000   +1.49898574
 O   +1.23457284   +0.00000000   +2.00088571
 O   -0.98145724   -0.02276683   +2.19104087
 C   +1.31556308   -0.03759229   +3.41460164
 H   +2.37144371   -0.02705067   +3.65180071
 H   +0.81788512   +0.82551488   +3.84556630
 H   +0.84635533   -0.93878556   +3.79669855
 C   +1.04248282   +0.90892233   -0.62684118
 C   +0.83289729   +2.36320565   -0.26060181
 C   +1.76648014   +3.32412968   -0.92942548
 C   +2.96305691   +3.01609990   -1.44781667
 H   -1.00552274   +0.26642634   -0.31291833
 H   +2.03137472   +0.58223470   -0.31260017
 H   +0.94527053   +2.48741178   +0.81989339
 H   +1.51180261   +4.37088974   -0.82108894
 H   +3.60990680   +3.78429554   -1.84087965
 H   +3.30395702   +1.99622730   -1.53783627
 H   +0.17088469   -1.03052889   -0.31208235
 H   +0.99596485   +0.80303751   -1.71055813
 H   +0.71678425   +3.41362348   -2.59561430
 H   -0.19346181   +2.65227737   -0.48699627
22
 * E =  +1.273 kcal/mol ; (24) 178_039_062_186_220
 C   +0.00000000   +0.00000000   +0.00000000
 C   +0.00000000   +0.00000000   +1.49899101
 O   +1.23380926   +0.00000000   +2.00301786
 O   -0.98234350   +0.02464768   +2.18978901
 C   +1.31176502   +0.04161020   +3.41689683
 H   +0.84094261   +0.94344436   +3.79541261
 H   +0.81398110   -0.82073536   +3.84926409
 H   +2.36715431   +0.03292867   +3.65643165
 C   +1.06747702   -0.87287953   -0.63487018
 C   +0.90337401   -2.34150380   -0.28346012
 C   +2.01157173   -3.22520136   -0.75738431
 C   +1.82968086   -4.45218845   -1.26415289
 H   +0.13705975   +1.03609242   -0.31059301
 H   +1.02374568   -0.75095442   -1.71554696
 H   -0.04901765   -2.71434409   -0.65993412
 H   +3.01427124   -2.91838783   -0.48368698
 H   +2.66479175   -5.09142582   -1.50316727
 H   +0.84086235   -4.82425455   -1.48961378
 H   -0.99834345   -0.29460690   -0.31147469
 H   +2.05112320   -0.52936185   -0.31926801
 H   +2.49356082   -2.28232080   -2.44395814
 H   +0.86382712   -2.43315314   +0.80543339
22
 * E =  +1.313 kcal/mol ; (25) 180_303_178_293_339
 C   +0.00000000   +0.00000000   +0.00000000
 C   +0.00000000   +0.00000000   +1.49488978
 O   +1.23998599   +0.00000000   +1.98791928
 O   -0.97496568   -0.00423506   +2.19650969
 C   +1.33078231   -0.00910971   +3.40116960
 H   +2.38839375   -0.01103380   +3.63121432
 H   +0.85076355   +0.87101116   +3.81752118
 H   +0.84986066   -0.89420388   +3.80579457
 C   +0.75529902   +1.18329643   -0.58910483
 C   +0.79656049   +1.16099757   -2.10540534
 C   +1.59867196   +0.05455018   -2.72299094
 C   +2.56453314   -0.64516384   -2.11238914
 H   -1.03626908   -0.00114283   -0.32370944
 H   +0.27358678   +2.10622353   -0.26902355
 H   +1.21834703   +2.10307610   -2.46146042
 H   +1.49973464   -0.04301134   -3.79680743
 H   +3.15790497   -1.36152326   -2.65808648
 H   +2.75849510   -0.55481342   -1.05374497
 H   +0.45259086   -0.93276045   -0.33437660
 H   +1.76503745   +1.20885577   -0.18402053
 H   +0.14905942   -1.28496278   -2.73199406
 H   -0.21885581   +1.12712251   -2.50067367
22
 * E =  +1.318 kcal/mol ; (26) 180_039_073_293_102
 C   +0.00000000   +0.00000000   +0.00000000
 C   +0.00000000   +0.00000000   +1.49888720
 O   +1.23271305   +0.00000000   +2.00430572
 O   -0.98398810   +0.05317787   +2.18579968
 C   +1.30159210   -0.00045549   +3.41776023
 H   +2.35534793   +0.00264332   +3.66530916
 H   +0.80975008   +0.87779356   +3.82377098
 H   +0.81707704   -0.88811152   +3.81456961
 C   +1.06279977   -0.85099728   -0.67451769
 C   +0.81139908   -2.35343298   -0.59284445
 C   +0.91077319   -2.89105123   +0.80029548
 C   -0.14895620   -3.19049265   +1.56427796
 H   +0.13373123   +1.04205443   -0.29354764
 H   +1.10030893   -0.57149690   -1.72615671
 H   +1.53640631   -2.85656819   -1.23033090
 H   +1.88708701   -2.82914851   +1.26596371
 H   -0.03625269   -3.48412244   +2.59633183
 H   -1.15161140   -3.18251735   +1.16218613
 H   -1.00045576   -0.28704162   -0.31295950
 H   +2.03776597   -0.61303709   -0.25272302
 H   +1.50279344   -4.68428780   +0.30825206
 H   -0.17515669   -2.58068769   -0.99742251
22
 * E =  +1.341 kcal/mol ; (27) 179_041_062_183_340
 C   +0.00000000   +0.00000000   +0.00000000
 C   +0.00000000   +0.00000000   +1.49934791
 O   +1.23403402   +0.00000000   +1.99892802
 O   -0.98218023   +0.02039204   +2.19089208
 C   +1.32021609   +0.02429268   +3.41242472
 H   +0.85420462   +0.92286357   +3.80460419
 H   +0.82274732   -0.84221610   +3.83667054
 H   +2.37693269   +0.00875121   +3.64513434
 C   +1.03954726   -0.91452574   -0.62430143
 C   +0.82600404   -2.36722876   -0.25396550
 C   +1.85863813   -3.31391723   -0.78359269
 C   +2.67841226   -3.07592122   -1.81690013
 H   +0.17569811   +1.02915556   -0.31365011
 H   +0.99352750   -0.79482593   -1.70566263
 H   -0.15117266   -2.69942851   -0.61379440
 H   +1.79823345   -4.32595506   -0.40352409
 H   +3.33769984   -3.84427740   -2.18832474
 H   +2.75148704   -2.10360307   -2.27924349
 H   -1.00689479   -0.26208196   -0.31255151
 H   +2.03453826   -0.60558746   -0.30792978
 H   +3.11622339   -3.01888176   +0.69213815
 H   +0.78896498   -2.46454062   +0.83145135
22
 * E =  +1.362 kcal/mol ; (28) 179_053_180_178_099
 C   +0.00000000   +0.00000000   +0.00000000
 C   +0.00000000   +0.00000000   +1.49671951
 O   +1.23678467   +0.00000000   +1.99259019
 O   -0.97870622   +0.00854201   +2.19297626
 C   +1.32447028   +0.01342471   +3.40633626
 H   +2.38158604   +0.01055762   +3.63819191
 H   +0.84734484   +0.90245799   +3.80676983
 H   +0.83886972   -0.86293182   +3.82393899
 C   +0.84566151   -1.10919286   -0.60419379
 C   +0.81818211   -1.07515830   -2.12560949
 C   +1.68729985   -2.14190536   -2.71169703
 C   +1.22739152   -3.31550016   -3.16497252
 H   +0.38008195   +0.96810434   -0.32842466
 H   +1.86991222   -1.01317088   -0.24826367
 H   +1.15055331   -0.09459898   -2.46607959
 H   +2.75431886   -2.02406154   -2.56487885
 H   +1.89680030   -4.09687378   -3.48851949
 H   +0.16734719   -3.49934568   -3.26569320
 H   -1.03574384   -0.07339744   -0.31761410
 H   +0.48429979   -2.07794131   -0.26059061
 H   +2.03886321   -1.21644792   -4.41120148
 H   -0.20433054   -1.20284695   -2.48023666
22
 * E =  +1.400 kcal/mol ; (29) 178_250_058_058_095
 C   +0.00000000   +0.00000000   +0.00000000
 C   +0.00000000   +0.00000000   +1.49677423
 O   +1.23238420   +0.00000000   +2.00305923
 O   -0.98580851   +0.03420447   +2.18299989
 C   +1.30724930   +0.04253039   +3.41800795
 H   +2.36195946   +0.03257860   +3.65968485
 H   +0.83712852   +0.94570880   +3.79416784
 H   +0.80675073   -0.81907192   +3.84830233
 C   -0.49329020   +1.34048967   -0.53303904
 C   +0.33723591   +2.53066517   -0.06208892
 C   +1.78069596   +2.41650428   -0.44356942
 C   +2.30189958   +2.96394978   -1.54947931
 H   -0.67160362   -0.78976236   -0.32675914
 H   -0.48692734   +1.30106008   -1.62086590
 H   +0.24714966   +2.62364272   +1.02036477
 H   +2.37279259   +1.70005082   +0.11248405
 H   +3.32589425   +2.78608897   -1.83830846
 H   +1.72584501   +3.64073101   -2.16456775
 H   +0.99778668   -0.22305328   -0.36577889
 H   -1.52514245   +1.48264457   -0.21726004
 H   +2.43582619   +3.66272119   +0.93784800
 H   -0.07960895   +3.44215924   -0.48673808
22
 * E =  +1.417 kcal/mol ; (30) 181_064_053_055_092
 C   +0.00000000   +0.00000000   +0.00000000
 C   +0.00000000   +0.00000000   +1.49617994
 O   +1.23650020   +0.00000000   +1.99136481
 O   -0.97964050   -0.02471790   +2.19235786
 C   +1.32600157   -0.03025325   +3.40506417
 H   +0.83817056   +0.83949912   +3.83369322
 H   +0.85224138   -0.92556446   +3.79549938
 H   +2.38335230   -0.02670736   +3.63564879
 C   +0.62472192   -1.26993110   -0.56673876
 C   +0.00813302   -2.55108053   -0.01268824
 C   -1.47729744   -2.60409892   -0.19903306
 C   -2.07155500   -3.16427281   -1.26055905
 H   +0.55656391   +0.86785815   -0.34780288
 H   +0.51038565   -1.25105404   -1.64920571
 H   +0.24618002   -2.63256230   +1.04809770
 H   -2.06890849   -1.99338124   +0.47244876
 H   -3.13891386   -3.10548227   -1.40494389
 H   -1.50613780   -3.73529615   -1.98356889
 H   -1.03181625   +0.10465537   -0.31964094
 H   +1.69170891   -1.26974344   -0.35213885
 H   -1.76715257   -3.99341326   +1.17545307
 H   +0.47035417   -3.40665569   -0.50185907
22
 * E =  +1.445 kcal/mol ; (31) 182_318_299_189_220
 C   +0.00000000   +0.00000000   +0.00000000
 C   +0.00000000   +0.00000000   +1.49898922
 O   +1.23422981   +0.00000000   +2.00031573
 O   -0.98178048   -0.02172349   +2.19088520
 C   +1.31580943   -0.03844662   +3.41387087
 H   +2.37182426   -0.02981551   +3.65046589
 H   +0.81951973   +0.82514431   +3.84557174
 H   +0.84517983   -0.93903599   +3.79567255
 C   +1.03017357   +0.92380227   -0.62585556
 C   +0.81677306   +2.37733914   -0.23906801
 C   +1.66187572   +3.35626123   -0.98854706
 C   +2.24659040   +4.42535329   -0.43159202
 H   -1.00970413   +0.25205129   -0.31199737
 H   +2.02919242   +0.61122115   -0.33106491
 H   +0.97750635   +2.50427334   +0.83154183
 H   +1.62100537   +3.29099875   -2.06967651
 H   +2.76631689   +5.15737518   -1.02926424
 H   +2.25295599   +4.56552672   +0.63950177
 H   +0.18703291   -1.02744825   -0.31282561
 H   +0.97486221   +0.82214823   -1.70954616
 H   +3.28686565   +2.24309056   -1.27437469
 H   -0.22844913   +2.63591182   -0.42873285
22
 * E =  +1.466 kcal/mol ; (32) 181_186_072_077_352
 C   +0.00000000   +0.00000000   +0.00000000
 C   +0.00000000   +0.00000000   +1.49841369
 O   +1.23772145   +0.00000000   +1.98745759
 O   -0.97692494   -0.01101776   +2.19853285
 C   +1.33346726   -0.02502718   +3.40059387
 H   +2.39196988   -0.02337003   +3.62579307
 H   +0.85045425   +0.84779900   +3.82852861
 H   +0.85968855   -0.91765375   +3.79697621
 C   -1.39320109   +0.14784729   -0.58053793
 C   -1.97286008   +1.54153381   -0.42083600
 C   -1.45236408   +2.58449738   -1.36544059
 C   -0.43062601   +2.44598425   -2.22574971
 H   +0.46302446   -0.93541762   -0.31408168
 H   -1.38045554   -0.12881516   -1.63407206
 H   -1.79570347   +1.88739699   +0.59924304
 H   -1.82563842   +3.58546007   -1.18711081
 H   -0.08353889   +3.28350373   -2.80982460
 H   +0.03341270   +1.49125728   -2.42122228
 H   +0.67128495   +0.79079321   -0.32936950
 H   -2.04677773   -0.56057291   -0.07734579
 H   -2.89032576   +2.49593743   -2.63311917
 H   -3.05608804   +1.49807913   -0.51891295
22
 * E =  +1.517 kcal/mol ; (33) 179_046_180_183_339
 C   +0.00000000   +0.00000000   +0.00000000
 C   +0.00000000   +0.00000000   +1.49722684
 O   +1.23418665   +0.00000000   +1.99919073
 O   -0.98160038   +0.01876321   +2.18917011
 C   +1.31343765   +0.02835099   +3.41331822
 H   +2.36910742   +0.01924726   +3.65160199
 H   +0.84139636   +0.92572973   +3.80095383
 H   +0.81770001   -0.83910127   +3.83741779
 C   +0.96881792   -0.98965303   -0.62316308
 C   +0.92304465   -0.93636279   -2.13530064
 C   +1.79121810   -1.94120309   -2.82824010
 C   +2.84756073   -2.56272642   -2.28692961
 H   +0.25388794   +1.01238704   -0.31880612
 H   +1.97298375   -0.77476926   -0.26515990
 H   +1.22381004   +0.05794348   -2.47623992
 H   +1.64172527   -2.02537684   -3.89728112
 H   +3.47040014   -3.21313786   -2.88024424
 H   +3.08537748   -2.48066093   -1.23750610
 H   -1.02215830   -0.19008468   -0.31376634
 H   +0.72548082   -2.00097994   -0.29494387
 H   +0.47093978   -3.39664371   -2.70252564
 H   -0.10440944   -1.06510682   -2.47578438
22
 * E =  +1.543 kcal/mol ; (34) 181_183_184_078_237
 C   +0.00000000   +0.00000000   +0.00000000
 C   +0.00000000   +0.00000000   +1.49525814
 O   +1.23821726   +0.00000000   +1.98634584
 O   -0.97766981   -0.00137777   +2.19353071
 C   +1.33045927   -0.01178235   +3.39941870
 H   +2.38846282   -0.01168379   +3.62746407
 H   +0.84927520   +0.86648219   +3.81852442
 H   +0.85287861   -0.89912005   +3.80311252
 C   -1.39255567   +0.07744386   -0.58384951
 C   -1.39052779   -0.03186821   -2.10371288
 C   -1.21908922   -1.41275262   -2.65821390
 C   -0.24143799   -1.75957928   -3.50960712
 H   +0.51639157   -0.90280699   -0.32815281
 H   -2.01271784   -0.70495040   -0.14960972
 H   -0.61592605   +0.61555382   -2.51640690
 H   -2.05941530   -2.08454726   -2.53102163
 H   -0.20632244   -2.73935393   -3.95937783
 H   +0.56615308   -1.07963962   -3.73947814
 H   +0.61678317   +0.83405588   -0.33459689
 H   -1.84733373   +1.02081644   -0.28849587
 H   -0.68443414   -2.47616041   -1.11750163
 H   -2.34104124   +0.34930292   -2.47853951
22
 * E =  +1.548 kcal/mol ; (35) 181_313_181_184_340
 C   +0.00000000   +0.00000000   +0.00000000
 C   +0.00000000   +0.00000000   +1.49711502
 O   +1.23462862   +0.00000000   +1.99669033
 O   -0.98102763   -0.01552276   +2.19027200
 C   +1.31804209   -0.02717837   +3.41050220
 H   +2.37446707   -0.02146568   +3.64538017
 H   +0.82665486   +0.84238112   +3.83547155
 H   +0.84413370   -0.92258118   +3.80043356
 C   +0.94390989   +1.01713727   -0.61796287
 C   +0.87917570   +0.98873614   -2.13002682
 C   +1.84097126   +1.90564744   -2.82111422
 C   +2.43559697   +2.97149902   -2.26817147
 H   -1.02657677   +0.16497620   -0.31389024
 H   +0.68625854   +2.01175770   -0.25448002
 H   -0.12906636   +1.25014511   -2.46140851
 H   +1.90875870   +1.78288483   -3.89472002
 H   +3.05230096   +3.62954387   -2.85945160
 H   +2.36672154   +3.18304549   -1.21221938
 H   +0.28212992   -1.00348349   -0.32205815
 H   +1.96246124   +0.81563499   -0.29083452
 H   +3.34442914   +0.63988997   -2.75509331
 H   +1.04870066   -0.02911957   -2.48219479
22
 * E =  +1.647 kcal/mol ; (36) 180_308_181_188_220
 C   +0.00000000   +0.00000000   +0.00000000
 C   +0.00000000   +0.00000000   +1.49672193
 O   +1.23669504   +0.00000000   +1.99238298
 O   -0.97874919   -0.00997788   +2.19292932
 C   +1.32455878   -0.01077899   +3.40610605
 H   +2.38170007   -0.00564410   +3.63779645
 H   +0.83765034   +0.86562926   +3.82201614
 H   +0.84892407   -0.89986103   +3.80825803
 C   +0.85233548   +1.10315375   -0.60556000
 C   +0.80840426   +1.07425782   -2.12313345
 C   +1.75777529   +2.01261385   -2.79633239
 C   +1.45872352   +2.72543910   -3.89061408
 H   -1.03570434   +0.08000250   -0.31659787
 H   +0.50612984   +2.07330301   -0.25127662
 H   -0.20503493   +1.26727354   -2.47433447
 H   +2.79407884   +1.94486395   -2.48660964
 H   +2.20521033   +3.31473414   -4.39917227
 H   +0.44932893   +2.76779835   -4.27318036
 H   +0.37229453   -0.97174871   -0.32721927
 H   +1.87938268   +0.99583265   -0.26050906
 H   +1.76018213   +3.49398263   -1.46732718
 H   +1.06147652   +0.06342976   -2.45459091
22
 * E =  +1.647 kcal/mol ; (37) 182_337_295_295_338
 C   +0.00000000   +0.00000000   +0.00000000
 C   +0.00000000   +0.00000000   +1.50010853
 O   +1.22685876   +0.00000000   +2.02196157
 O   -0.99025027   -0.03914054   +2.17814710
 C   +1.28006671   -0.04674017   +3.43675106
 H   +2.33105782   -0.03263196   +3.69514624
 H   +0.76849454   +0.81068028   +3.86259554
 H   +0.80786963   -0.95282441   +3.80324013
 C   +1.25750461   +0.52583422   -0.66827538
 C   +1.53101517   +1.99760897   -0.41575302
 C   +0.53629533   +2.96304093   -0.98748403
 C   -0.30543355   +2.71638568   -2.00027409
 H   -0.88595980   +0.55134198   -0.30283385
 H   +2.11176274   -0.04850900   -0.31810026
 H   +2.50635734   +2.25170002   -0.83594920
 H   +0.65284228   +3.98979085   -0.66381290
 H   -0.92442537   +3.49848389   -2.41020557
 H   -0.43056917   +1.72748281   -2.41549176
 H   -0.16962208   -1.03665338   -0.29346461
 H   +1.18320088   +0.34317227   -1.73973597
 H   -0.70662143   +2.89643886   +0.54174158
 H   +1.62304286   +2.16945256   +0.65590026
22
 * E =  +1.820 kcal/mol ; (38) 181_188_185_077_355
 C   +0.00000000   +0.00000000   +0.00000000
 C   +0.00000000   +0.00000000   +1.49583302
 O   +1.23792241   +0.00000000   +1.98704480
 O   -0.97797962   -0.00788276   +2.19362456
 C   +1.33037802   -0.02061054   +3.40037309
 H   +2.38837066   -0.01873978   +3.62817253
 H   +0.84653595   +0.85360793   +3.82461469
 H   +0.85534862   -0.91178372   +3.79860922
 C   -1.38407239   +0.18343342   -0.58776789
 C   -1.40185412   +0.05709757   -2.09972777
 C   -1.32449895   -1.33970936   -2.64607489
 C   -1.14691990   -2.46217559   -1.93116053
 H   +0.45583944   -0.93426774   -0.32710547
 H   -2.07463130   -0.52671140   -0.13648178
 H   -0.56741929   +0.62193847   -2.52331675
 H   -1.21369004   -1.40382992   -3.72137819
 H   -1.03026639   -3.41557459   -2.42147483
 H   -1.18788367   -2.47021657   -0.85255284
 H   +0.67711003   +0.78481296   -0.33542684
 H   -1.75329776   +1.16705993   -0.30526992
 H   -3.18224180   -1.55068702   -3.05086473
 H   -2.29842842   +0.53159634   -2.49484682
22
 * E =  +1.828 kcal/mol ; (39) 181_192_065_063_172
 C   +0.00000000   +0.00000000   +0.00000000
 C   +0.00000000   +0.00000000   +1.49778398
 O   +1.23555178   +0.00000000   +1.98912404
 O   -0.97997190   -0.02374057   +2.19390314
 C   +1.32777975   -0.01944648   +3.40227523
 H   +2.38570128   -0.01294223   +3.63013942
 H   +0.84090518   +0.85433820   +3.82374042
 H   +0.85597198   -0.91196789   +3.80145273
 C   -1.36346549   +0.29701161   -0.59082360
 C   -1.88385144   +1.69561036   -0.30214334
 C   -1.04610933   +2.79418696   -0.89601447
 C   -1.39733561   +4.08681250   -0.90931527
 H   +0.34478213   -0.98609152   -0.31284874
 H   -1.31254863   +0.14463188   -1.66900389
 H   -1.97633085   +1.82920853   +0.77370134
 H   -0.19669763   +2.49303928   -1.49917045
 H   -0.79385687   +4.82692318   -1.41034383
 H   -2.27341260   +4.43741872   -0.38279163
 H   +0.76164446   +0.70072202   -0.33651079
 H   -2.07639757   -0.42617321   -0.20104245
 H   +0.28497340   +2.87257440   +0.57330947
 H   -2.89233376   +1.77767042   -0.70640860
22
 * E =  +1.855 kcal/mol ; (40) 182_318_187_302_225
 C   +0.00000000   +0.00000000   +0.00000000
 C   +0.00000000   +0.00000000   +1.49660717
 O   +1.23269922   +0.00000000   +1.99961102
 O   -0.98338137   -0.01876218   +2.18678525
 C   +1.31106321   -0.03573087   +3.41336707
 H   +2.36672511   -0.03444342   +3.65179540
 H   +0.82074172   +0.83269269   +3.84195118
 H   +0.83318872   -0.93206179   +3.79619501
 C   +1.02928921   +0.92624800   -0.62343896
 C   +0.89488782   +1.02777449   -2.13573677
 C   +1.00642909   -0.25612968   -2.89496566
 C   +1.73089759   -0.39863672   -4.01280327
 H   -1.00992710   +0.25177362   -0.31311452
 H   +0.91759729   +1.92451087   -0.20135247
 H   +1.63646515   +1.72865739   -2.51559136
 H   +0.30717716   -1.04135459   -2.63414849
 H   +1.71080595   -1.31324396   -4.58406102
 H   +2.39039601   +0.38520274   -4.35622641
 H   +0.19149985   -1.02831729   -0.31128439
 H   +2.02764550   +0.58299156   -0.36096495
 H   +2.18692557   -1.28540771   -1.64509648
 H   -0.08309500   +1.45871047   -2.36576597
22
 * E =  +1.894 kcal/mol ; (41) 182_087_065_066_262
 C   +0.00000000   +0.00000000   +0.00000000
 C   +0.00000000   +0.00000000   +1.49415159
 O   +1.23355946   +0.00000000   +1.99627741
 O   -0.98161439   -0.03585946   +2.19011032
 C   +1.31636110   -0.04978347   +3.40938405
 H   +0.81477939   +0.80703477   +3.84808979
 H   +0.85298512   -0.95681886   +3.78502262
 H   +2.37247216   -0.03550727   +3.64526451
 C   +0.07100409   -1.42148710   -0.55191218
 C   -1.15717046   -2.26251599   -0.21899977
 C   -2.44208610   -1.80557747   -0.84884080
 C   -3.34934122   -1.06155433   -0.19530570
 H   +0.85037271   +0.57439905   -0.35600267
 H   +0.19218535   -1.36055677   -1.63217982
 H   -1.29306557   -2.27644135   +0.86151134
 H   -2.72292387   -2.26762824   -1.78667165
 H   -4.29348403   -0.80330997   -0.64953227
 H   -3.13477562   -0.66534527   +0.78723270
 H   -0.91647245   +0.47965913   -0.33353721
 H   +0.96008153   -1.91443427   -0.16005874
 H   -1.83646840   -0.49807201   -2.15970447
 H   -0.96257388   -3.28967379   -0.52392602
22
 * E =  +1.956 kcal/mol ; (42) 183_210_208_076_354
 C   +0.00000000   +0.00000000   +0.00000000
 C   +0.00000000   +0.00000000   +1.49600171
 O   +1.23113145   +0.00000000   +1.99916720
 O   -0.98542948   -0.03537225   +2.18444933
 C   +1.30972670   -0.06864359   +3.41245191
 H   +0.80473566   +0.78104896   +3.86078682
 H   +0.84727983   -0.98197749   +3.77342000
 H   +2.36515063   -0.05530918   +3.65120223
 C   -1.21697051   +0.69158045   -0.59526309
 C   -1.58121625   +0.15171443   -1.96472695
 C   -2.25829555   -1.18920088   -1.95534164
 C   -2.45695839   -1.95973191   -0.87318109
 H   +0.01403738   -1.05126777   -0.29396461
 H   -2.06014565   +0.58209357   +0.08396462
 H   -0.68144763   +0.06646106   -2.57978439
 H   -2.41620193   -1.63235155   -2.93065542
 H   -2.88713594   -2.94387415   -0.97236607
 H   -2.26616503   -1.60756706   +0.13050892
 H   +0.93104887   +0.42986627   -0.35897543
 H   -1.01904717   +1.75924926   -0.66683100
 H   -4.05268892   -0.55705961   -2.19556505
 H   -2.22031905   +0.86291033   -2.48502820
22
 * E =  +1.972 kcal/mol ; (43) 179_050_176_061_092
 C   +0.00000000   +0.00000000   +0.00000000
 C   +0.00000000   +0.00000000   +1.49626208
 O   +1.23600690   +0.00000000   +1.99351900
 O   -0.97955467   +0.00980606   +2.19163131
 C   +1.32196099   +0.01783882   +3.40722093
 H   +2.37884864   +0.01696110   +3.64020921
 H   +0.84332113   +0.90748858   +3.80445890
 H   +0.83694895   -0.85774861   +3.82718068
 C   +0.89174629   -1.07318759   -0.60426386
 C   +0.80115158   -1.13301703   -2.12523028
 C   +1.22951309   +0.14351610   -2.78162547
 C   +2.48343128   +0.38580581   -3.18530747
 H   +0.33741960   +0.98539275   -0.32231911
 H   +1.92171217   -0.89352038   -0.30429358
 H   -0.22089851   -1.37399057   -2.41560628
 H   +0.52937026   +0.96938937   -2.75382707
 H   +2.77644256   +1.34975829   -3.57046052
 H   +3.23294847   -0.39279839   -3.17987618
 H   -1.03271555   -0.11661245   -0.31636426
 H   +0.60783624   -2.04507627   -0.20103643
 H   +0.34619928   -0.24721996   -4.50476261
 H   +1.42954508   -1.94685026   -2.48283073
22
 * E =  +1.995 kcal/mol ; (44) 181_308_177_062_094
 C   +0.00000000   +0.00000000   +0.00000000
 C   +0.00000000   +0.00000000   +1.49717557
 O   +1.23589194   +0.00000000   +1.99558266
 O   -0.97949912   -0.01193656   +2.19223503
 C   +1.32029353   -0.01828001   +3.40942235
 H   +2.37683897   -0.01080092   +3.64386689
 H   +0.82886176   +0.85378804   +3.82915265
 H   +0.84695911   -0.91134390   +3.80539046
 C   +0.86707568   +1.09279425   -0.60520267
 C   +0.92472034   +1.03298306   -2.12765456
 C   -0.41381416   +1.22946886   -2.77035326
 C   -0.86710566   +2.41771553   -3.19047777
 H   -1.03589995   +0.08838626   -0.31089929
 H   +0.48721779   +2.06730323   -0.29931832
 H   +1.34555233   +0.07447003   -2.43069758
 H   -1.11145270   +0.40295622   -2.71583474
 H   -1.87199707   +2.53903067   -3.56300020
 H   -0.22417934   +3.28621484   -3.21069744
 H   +0.36463054   -0.97557243   -0.32570394
 H   +1.87549791   +1.00334022   -0.20738430
 H   +0.08964145   +0.39456012   -4.48710871
 H   +1.60714886   +1.80247094   -2.48447135
22
 * E =  +2.097 kcal/mol ; (45) 179_167_274_068_188
 C   +0.00000000   +0.00000000   +0.00000000
 C   +0.00000000   +0.00000000   +1.49848446
 O   +1.23632895   +0.00000000   +1.98513695
 O   -0.97731041   +0.04353483   +2.19846623
 C   +1.33386224   +0.02172436   +3.39772085
 H   +2.39267795   +0.02201624   +3.62152977
 H   +0.85739848   +0.91110559   +3.79823750
 H   +0.85465259   -0.85592968   +3.82030615
 C   -1.35076765   -0.30902614   -0.61771435
 C   -1.67107218   -1.78566440   -0.79309981
 C   -1.88032282   -2.56674921   +0.47285597
 C   -2.02338766   -3.89708066   +0.50747532
 H   +0.77529107   -0.68260171   -0.34331017
 H   -2.12497926   +0.16297298   -0.01421218
 H   -0.90050004   -2.26534884   -1.39755424
 H   -2.08450000   -1.99221691   +1.36761217
 H   -2.25438110   -4.41044918   +1.42731415
 H   -1.87489342   -4.50575180   -0.37345163
 H   +0.32919543   +0.99836013   -0.29167262
 H   -1.39083636   +0.15751074   -1.59995265
 H   +0.05785120   -2.61024777   +1.10575679
 H   -2.59259149   -1.85291261   -1.37336544
22
 * E =  +2.116 kcal/mol ; (46) 179_307_285_060_089
 C   +0.00000000   +0.00000000   +0.00000000
 C   +0.00000000   +0.00000000   +1.49881295
 O   +1.23611182   +0.00000000   +1.99115979
 O   -0.97911563   -0.02326345   +2.19593055
 C   +1.32788533   +0.02638762   +3.40323294
 H   +2.38540923   +0.01054551   +3.63280666
 H   +0.86732962   +0.92993877   +3.79154552
 H   +0.82892390   -0.83629007   +3.83337687
 C   +0.82616973   +1.11246222   -0.63277945
 C   +0.17620747   +2.49220147   -0.57712697
 C   -0.09332460   +2.97176086   +0.81736624
 C   +0.78787075   +3.67149465   +1.54374082
 H   -1.03685580   +0.03956009   -0.32198428
 H   +1.80245755   +1.14440460   -0.15298904
 H   -0.75604207   +2.46800134   -1.14037817
 H   -0.96854519   +2.57089397   +1.31310632
 H   +0.59124250   +3.92680845   +2.57334767
 H   +1.70482533   +4.04361790   +1.10887818
 H   +0.40464330   -0.96366674   -0.30813042
 H   +0.99347715   +0.85969364   -1.67853844
 H   -1.34350614   +4.40265831   +0.25595662
 H   +0.82886720   +3.20317142   -1.08127467
22
 * E =  +2.242 kcal/mol ; (47) 180_179_177_067_169
 C   +0.00000000   +0.00000000   +0.00000000
 C   +0.00000000   +0.00000000   +1.49651510
 O   +1.23736126   +0.00000000   +1.98801926
 O   -0.97842402   +0.00226428   +2.19384883
 C   +1.32943452   +0.00659386   +3.40140304
 H   +2.38739594   +0.00476423   +3.62935140
 H   +0.85253077   +0.89279740   +3.80843050
 H   +0.84744626   -0.87285866   +3.81691421
 C   -1.39844453   -0.03064359   -0.57674863
 C   -1.42483230   +0.05084721   -2.09242640
 C   -0.83831374   -1.15389438   -2.77736953
 C   -0.93972151   -1.39744138   -4.09034718
 H   +0.60160245   -0.84549817   -0.33183012
 H   -1.90572971   -0.93642742   -0.24583507
 H   -0.90665423   +0.95199530   -2.42126400
 H   -0.47325449   -1.94946973   -2.13775670
 H   -0.56319692   -2.31118187   -4.52182221
 H   -1.36420283   -0.66991519   -4.76733403
 H   +0.54421680   +0.88474383   -0.33222719
 H   -1.96771954   +0.79591106   -0.15749176
 H   +1.05142876   -0.56093093   -2.71984974
 H   -2.45832711   +0.15960213   -2.41907978
22
 * E =  +2.256 kcal/mol ; (48) 178_139_276_058_096
 C   +0.00000000   +0.00000000   +0.00000000
 C   +0.00000000   +0.00000000   +1.49936571
 O   +1.23234825   +0.00000000   +2.00486558
 O   -0.98550577   +0.02858640   +2.18486820
 C   +1.30516411   +0.04941694   +3.41911198
 H   +2.35971252   +0.04379128   +3.66218192
 H   +0.83112779   +0.95220754   +3.79128195
 H   +0.80674864   -0.81182742   +3.85309668
 C   -1.05771752   -0.92168551   -0.58846079
 C   -0.60954753   -2.37600618   -0.69852803
 C   -0.20365958   -2.97141919   +0.61413086
 C   -1.01646475   -3.70944022   +1.38058927
 H   +0.99655161   -0.23868558   -0.36380816
 H   -1.95497565   -0.85039705   +0.02358173
 H   +0.22380651   -2.43409761   -1.39863439
 H   +0.73152086   -2.62305176   +1.03776062
 H   -0.71946592   -4.04090358   +2.36296821
 H   -1.98538149   -4.02780944   +1.02381486
 H   -0.20665669   +1.03004369   -0.29002130
 H   -1.31782957   -0.56984904   -1.58488811
 H   +0.94428649   -4.37764989   -0.15818933
 H   -1.41951368   -2.96572625   -1.12461396
22
 * E =  +2.469 kcal/mol ; (49) 180_062_195_078_353
 C   +0.00000000   +0.00000000   +0.00000000
 C   +0.00000000   +0.00000000   +1.49483690
 O   +1.24376942   +0.00000000   +1.97985817
 O   -0.97117505   +0.00226596   +2.20106361
 C   +1.34561555   -0.00345802   +3.39266453
 H   +2.40490062   -0.00906263   +3.61453026
 H   +0.87273173   +0.88085389   +3.80828231
 H   +0.86413903   -0.88477293   +3.80464812
 C   +0.66465969   -1.23883904   -0.59401621
 C   +0.98982104   -1.06889171   -2.06574401
 C   +2.20857333   -0.24222655   -2.35975898
 C   +2.92600374   +0.45239428   -1.46194335
 H   +0.52747284   +0.89356258   -0.33068285
 H   +1.57499840   -1.47187760   -0.04412554
 H   +0.14175917   -0.60725788   -2.57791597
 H   +2.39175562   -0.05413279   -3.41027558
 H   +3.74468572   +1.07825097   -1.78029931
 H   +2.76052253   +0.36633907   -0.39779676
 H   -1.03183863   +0.07878944   -0.32705184
 H   -0.00204861   -2.08924935   -0.46529073
 H   +3.42487573   -1.70451627   -2.62922029
 H   +1.11182474   -2.04531996   -2.53131596
22
 * E =  +2.550 kcal/mol ; (50) 178_039_182_077_239
 C   +0.00000000   +0.00000000   +0.00000000
 C   +0.00000000   +0.00000000   +1.49608536
 O   +1.23073411   +0.00000000   +2.00506749
 O   -0.98532984   +0.02356240   +2.18378538
 C   +1.30137803   +0.04643918   +3.41870777
 H   +2.35561209   +0.03723788   +3.66346754
 H   +0.82997543   +0.95040383   +3.79154569
 H   +0.79994290   -0.81353715   +3.85144366
 C   +1.06663485   -0.86822494   -0.64094893
 C   +1.04232910   -0.77326604   -2.16224600
 C   +1.65266293   +0.46295547   -2.74826735
 C   +0.98542989   +1.32203549   -3.53450712
 H   +0.13481904   +1.03718189   -0.31393436
 H   +2.04690286   -0.58445778   -0.26321038
 H   +0.01447002   -0.86383004   -2.51470476
 H   +2.73333534   +0.52651212   -2.70966360
 H   +1.48234963   +2.15124021   -4.01299974
 H   -0.08150441   +1.23317574   -3.67948923
 H   -0.99602530   -0.30118296   -0.31267127
 H   +0.90550260   -1.90511798   -0.34868430
 H   +1.95926393   +1.61054741   -1.20860765
 H   +1.58406261   -1.62707557   -2.57048688
22
 * E =  +3.236 kcal/mol ; (51) 180_301_178_067_165
 C   +0.00000000   +0.00000000   +0.00000000
 C   +0.00000000   +0.00000000   +1.49633871
 O   +1.23812908   +0.00000000   +1.99094181
 O   -0.97710560   +0.00197195   +2.19501346
 C   +1.32705291   +0.00040069   +3.40442168
 H   +2.38437599   +0.00271151   +3.63556329
 H   +0.84389359   +0.88187675   +3.81415685
 H   +0.84821187   -0.88347475   +3.81414066
 C   +0.72246404   +1.20649282   -0.58333828
 C   +0.76201409   +1.19675537   -2.10122784
 C   -0.58871513   +1.36450879   -2.74333676
 C   -0.77306717   +1.66701471   -4.03492902
 H   -1.03661087   -0.04463278   -0.31757542
 H   +0.23758242   +2.12141713   -0.23986906
 H   +1.22534828   +0.27149204   -2.44418053
 H   -1.44304217   +1.42086656   -2.07880961
 H   -1.75930714   +1.84393196   -4.43348557
 H   +0.05394476   +1.70248655   -4.72962006
 H   +0.49094477   -0.91233869   -0.33922332
 H   +1.73835300   +1.22581852   -0.19559161
 H   -1.06656779   -0.54772212   -2.77191902
 H   +1.40787334   +2.00493169   -2.44210050
22
 * E =  +4.306 kcal/mol ; (52) 182_342_276_072_188
 C   +0.00000000   +0.00000000   +0.00000000
 C   +0.00000000   +0.00000000   +1.50022899
 O   +1.22171562   +0.00000000   +2.03281264
 O   -0.99618676   -0.06036935   +2.16841507
 C   +1.25663674   -0.04076517   +3.44859572
 H   +2.30443469   -0.04228145   +3.72049746
 H   +0.75343289   +0.82828516   +3.86114266
 H   +0.76470468   -0.93675282   +3.81346020
 C   +1.27295155   +0.40314659   -0.72630574
 C   +1.49038787   +1.89546063   -0.92853409
 C   +1.85261079   +2.68442094   +0.29604122
 C   +1.92525114   +4.01948544   +0.32877422
 H   -0.84777472   +0.60950406   -0.30562692
 H   +2.13390630   -0.02751096   -0.21776919
 H   +0.61595484   +2.33790154   -1.40640002
 H   +2.22691199   +2.11859904   +1.13926083
 H   +2.26999056   +4.54033101   +1.20788044
 H   +1.60353671   +4.62384522   -0.50754255
 H   -0.26137187   -1.02447113   -0.26872013
 H   +1.24168785   -0.05491173   -1.71335456
 H   +0.02819848   +2.58962963   +1.22743419
 H   +2.31002863   +2.00959799   -1.63974148
22
 * E =  +4.780 kcal/mol ; (53) 178_149_271_064_285
 C   +0.00000000   +0.00000000   +0.00000000
 C   +0.00000000   +0.00000000   +1.49912375
 O   +1.23662315   +0.00000000   +1.99580563
 O   -0.97983398   +0.05403166   +2.19036285
 C   +1.31796951   +0.05236505   +3.40888845
 H   +2.37399872   +0.04701201   +3.64600283
 H   +0.84639225   +0.95561043   +3.78325921
 H   +0.82227785   -0.80896922   +3.84601479
 C   -1.18617294   -0.72145241   -0.61901261
 C   -0.97265805   -2.21109468   -0.86931069
 C   -0.76179419   -3.09037596   +0.33472182
 C   +0.37395882   -3.14457546   +1.04518208
 H   +0.95080718   -0.38446268   -0.36185671
 H   -2.05625370   -0.56721071   +0.01714693
 H   -0.11308184   -2.32787404   -1.53139389
 H   -1.49973300   -3.86225133   +0.50673395
 H   +0.48852202   -3.84578056   +1.85707056
 H   +1.20327006   -2.47859487   +0.85512010
 H   -0.02841385   +1.05441253   -0.27812552
 H   -1.40743965   -0.25954620   -1.57948555
 H   -2.07946051   -2.23454838   +1.53107138
 H   -1.83281257   -2.58244527   -1.42247179
22
 * E =  +7.534 kcal/mol ; (54) 355_167_293_296_337
 C   +0.00000000   +0.00000000   +0.00000000
 C   +0.00000000   +0.00000000   +1.50621613
 O   +1.18037216   +0.00000000   +2.13396927
 O   -1.00183762   +0.03791752   +2.16133726
 C   +2.38937386   -0.10801193   +1.41824502
 H   +3.17659952   +0.00766963   +2.15285453
 H   +2.48180578   -1.08483231   +0.94833903
 H   +2.48659920   +0.67351993   +0.66834028
 C   -1.37259786   -0.30753715   -0.56558904
 C   -1.83234350   -1.72880671   -0.29226066
 C   -1.02149774   -2.81829275   -0.92618950
 C   -0.24435396   -2.69205487   -2.01127973
 H   +0.73945864   -0.70430018   -0.37391794
 H   -2.09243881   +0.37579542   -0.12252747
 H   -2.85868967   -1.84215168   -0.64685544
 H   -1.23203099   -3.81833659   -0.56789239
 H   +0.23399985   -3.55054849   -2.45550852
 H   -0.04047227   -1.73169855   -2.46175210
 H   +0.33153482   +0.98985159   -0.32018300
 H   -1.36592607   -0.11234083   -1.63716198
 H   +0.37587761   -2.89248615   +0.47701989
 H   -1.87638792   -1.88763118   +0.78327953
22
 * E =  +7.825 kcal/mol ; (55) 358_172_291_298_103
 C   +0.00000000   +0.00000000   +0.00000000
 C   +0.00000000   +0.00000000   +1.50468431
 O   +1.18427157   +0.00000000   +2.12892915
 O   -0.99837450   +0.02045111   +2.16500090
 C   +2.39332732   -0.04246099   +1.40656798
 H   +3.17984533   +0.05660201   +2.14429169
 H   +2.51252587   -0.99010022   +0.88621133
 H   +2.46869098   +0.77741997   +0.69636472
 C   -1.38609536   -0.20020641   -0.57652474
 C   -1.95579336   -1.59764481   -0.34553761
 C   -1.13414065   -2.66056293   -1.00328869
 C   -0.28670497   -3.46684918   -0.34651901
 H   +0.68249021   -0.76609611   -0.36517157
 H   -2.06198801   +0.52634486   -0.13198507
 H   -2.97026522   -1.61914381   -0.73884457
 H   -1.08053571   -2.62690769   -2.08589758
 H   +0.35105709   -4.16250562   -0.86968062
 H   -0.26537750   -3.49039951   +0.73395693
 H   +0.41371220   +0.95523255   -0.32773356
 H   -1.34811326   +0.00434436   -1.64640619
 H   -2.59910646   -3.90041611   -1.35380976
 H   -2.02533857   -1.78714844   +0.72308191
22
 * E =  +7.970 kcal/mol ; (56) 359_177_181_294_338
 C   +0.00000000   +0.00000000   +0.00000000
 C   +0.00000000   +0.00000000   +1.50241872
 O   +1.18550632   +0.00000000   +2.12553611
 O   -0.99906401   +0.00675471   +2.16131961
 C   +2.39249509   -0.02017794   +1.39892002
 H   +3.18172025   +0.02656928   +2.13883627
 H   +2.49896529   -0.93823895   +0.82554714
 H   +2.47808643   +0.83600489   +0.73419190
 C   -1.40337447   -0.06570171   -0.56297059
 C   -1.43245909   -0.08139676   -2.07946335
 C   -0.95788785   +1.16652364   -2.76250411
 C   -0.91465373   +2.38838265   -2.21466308
 H   +0.59472521   -0.84124638   -0.35926952
 H   -1.88975548   -0.96218660   -0.18569818
 H   -2.45662984   -0.26106841   -2.41214475
 H   -0.81609321   +1.08372532   -3.83283929
 H   -0.64851303   +3.25155462   -2.80385167
 H   -1.11166947   +2.55412179   -1.16575078
 H   +0.52118657   +0.89121316   -0.35125539
 H   -1.98918335   +0.76373492   -0.17240397
 H   +0.97264849   +0.71333535   -2.73883648
 H   -0.85363127   -0.92788940   -2.45061861
22
 * E =  +8.196 kcal/mol ; (57) 359_178_180_294_103
 C   +0.00000000   +0.00000000   +0.00000000
 C   +0.00000000   +0.00000000   +1.50282628
 O   +1.18536267   +0.00000000   +2.12711804
 O   -0.99896873   +0.00379732   +2.16124991
 C   +2.39328622   -0.01211229   +1.40303249
 H   +3.18133119   +0.02766543   +2.14463133
 H   +2.50188740   -0.92440972   +0.82070942
 H   +2.47947597   +0.85142134   +0.74775050
 C   -1.40242137   -0.04868165   -0.56316781
 C   -1.43170625   -0.05425026   -2.08732772
 C   -0.91460612   +1.22321056   -2.67053682
 C   +0.30554815   +1.36918063   -3.20704405
 H   +0.58517602   -0.84996651   -0.35568722
 H   -1.90512156   -0.93695245   -0.18741807
 H   -2.45807415   -0.21543665   -2.41080132
 H   -1.49367091   +2.11326076   -2.45242099
 H   +0.66739599   +2.33172749   -3.53316950
 H   +0.94263825   +0.51460165   -3.38620403
 H   +0.52734443   +0.88627734   -0.35484911
 H   -1.97065868   +0.79662247   -0.17875269
 H   -2.00242713   +1.18436704   -4.28997250
 H   -0.84623783   -0.89093691   -2.46987310
22
 * E =  +8.292 kcal/mol ; (58) 002_186_072_188_221
 C   +0.00000000   +0.00000000   +0.00000000
 C   +0.00000000   +0.00000000   +1.50576415
 O   +1.18398156   +0.00000000   +2.13034373
 O   -0.99881997   -0.02052669   +2.16475791
 C   +2.39447670   +0.03278579   +1.41027941
 H   +3.17925934   -0.05917120   +2.15066860
 H   +2.47071422   -0.79473198   +0.70914817
 H   +2.51777338   +0.97448888   +0.88011617
 C   -1.39059418   +0.15257743   -0.58041543
 C   -1.94993357   +1.55329411   -0.39792803
 C   -3.38403616   +1.70396456   -0.78785664
 C   -3.87799483   +2.76104914   -1.44666934
 H   +0.44859668   -0.93901516   -0.32780729
 H   -1.36089634   -0.09141522   -1.64063721
 H   -1.34526963   +2.27343446   -0.95050080
 H   -4.07454083   +1.00671962   -0.32851049
 H   -4.93696771   +2.87213872   -1.61804356
 H   -3.22727337   +3.51678512   -1.86223497
 H   +0.66055667   +0.78701856   -0.36549976
 H   -2.05304436   -0.56761961   -0.10381321
 H   -3.47362265   +0.38099797   -2.27863724
 H   -1.87523092   +1.81236958   +0.65929880
22
 * E =  +8.331 kcal/mol ; (59) 358_174_290_186_337
 C   +0.00000000   +0.00000000   +0.00000000
 C   +0.00000000   +0.00000000   +1.50553747
 O   +1.18390660   +0.00000000   +2.13030777
 O   -0.99885400   +0.02138065   +2.16426625
 C   +2.39467842   -0.03546418   +1.41078202
 H   +3.17929934   +0.05552007   +2.15147676
 H   +2.51654368   -0.97766633   +0.88119005
 H   +2.47277180   +0.79153404   +0.70920221
 C   -1.38993954   -0.15748318   -0.58044382
 C   -1.95941768   -1.54484106   -0.36800149
 C   -3.27128622   -1.78937708   -1.04574171
 C   -4.14432534   -0.84422905   -1.41922040
 H   +0.66181366   -0.78517421   -0.36650638
 H   -2.04249559   +0.58445645   -0.12530777
 H   -2.09069150   -1.72025779   +0.70086087
 H   -3.59605708   -2.82191272   -1.07128178
 H   -5.10639608   -1.10938873   -1.82797228
 H   -3.90793434   +0.20736749   -1.36636168
 H   +0.44581895   +0.94070127   -0.32719399
 H   -1.35027533   +0.05079528   -1.64968166
 H   -2.46093477   -2.16441384   -2.80955572
 H   -1.24311442   -2.29012551   -0.71672379
22
 * E =  +8.376 kcal/mol ; (60) 002_187_071_177_098
 C   +0.00000000   +0.00000000   +0.00000000
 C   +0.00000000   +0.00000000   +1.50595127
 O   +1.18432368   +0.00000000   +2.12998131
 O   -0.99840916   -0.02364548   +2.16500851
 C   +2.39441475   +0.04261333   +1.40981500
 H   +3.17969227   -0.06004970   +2.14828406
 H   +2.47009866   -0.77471208   +0.69672730
 H   +2.51729678   +0.99195038   +0.89326841
 C   -1.38978049   +0.17134330   -0.57781354
 C   -1.94377475   +1.57572226   -0.37842031
 C   -3.28770138   +1.72578987   -1.01764733
 C   -4.44391359   +1.62354810   -0.34947381
 H   +0.43629237   -0.94566516   -0.32602096
 H   -1.35405945   -0.05838201   -1.64253231
 H   -1.24806336   +2.29858840   -0.80615557
 H   -3.31094014   +1.71529974   -2.10113523
 H   -5.39379755   +1.64136583   -0.86042938
 H   -4.46042660   +1.56115941   +0.72891537
 H   +0.66931587   +0.77854975   -0.36695074
 H   -2.06132369   -0.54730830   -0.11388921
 H   -3.18341609   +3.68082016   -1.26255389
 H   -2.01987086   +1.78476870   +0.68599735
22
 * E =  +8.393 kcal/mol ; (61) 358_173_289_177_096
 C   +0.00000000   +0.00000000   +0.00000000
 C   +0.00000000   +0.00000000   +1.50593980
 O   +1.18368283   +0.00000000   +2.13078919
 O   -0.99930102   +0.02316034   +2.16370887
 C   +2.39403989   -0.04005730   +1.41087971
 H   +3.17897122   +0.06458851   +2.14942192
 H   +2.51910016   -0.98926770   +0.89462747
 H   +2.46770101   +0.77720037   +0.69747329
 C   -1.38955908   -0.17779383   -0.57622819
 C   -1.92814047   -1.58985543   -0.38652580
 C   -3.32548068   -1.70902751   -0.90523305
 C   -3.63602237   -2.16991776   -2.12420103
 H   +0.67258610   -0.77532595   -0.36772453
 H   -2.06131586   +0.53400508   -0.10039793
 H   -1.90299548   -1.83607572   +0.67279636
 H   -4.09102772   -1.20458543   -0.32821506
 H   -4.64886776   -2.14899657   -2.49451394
 H   -2.88803029   -2.62546563   -2.75753771
 H   +0.43139557   +0.94770315   -0.32655885
 H   -1.36693400   +0.05833288   -1.63869671
 H   -3.81785617   -3.26163032   +0.20019887
 H   -1.28525753   -2.30047414   -0.90734913
22
 * E =  +8.437 kcal/mol ; (62) 005_199_085_305_103
 C   +0.00000000   +0.00000000   +0.00000000
 C   +0.00000000   +0.00000000   +1.50809982
 O   +1.17680961   +0.00000000   +2.14269713
 O   -1.00327132   -0.05756211   +2.15913491
 C   +2.39194191   +0.11354785   +1.43970255
 H   +3.17211316   -0.00384251   +2.18164429
 H   +2.49910730   -0.66409519   +0.68709053
 H   +2.48791050   +1.09315565   +0.97609652
 C   -1.32904667   +0.45387331   -0.57380613
 C   -1.43712581   +1.97350799   -0.68625037
 C   -1.17547726   +2.66341419   +0.61461842
 C   -0.02473987   +3.29085808   +0.89786095
 H   +0.21992430   -1.02555917   -0.30338417
 H   -1.45885713   +0.02719167   -1.56629350
 H   -2.43060756   +2.22382407   -1.05343014
 H   -1.86285185   +2.44673011   +1.42242798
 H   +0.17186506   +3.69125108   +1.88001178
 H   +0.71836488   +3.46738455   +0.13191966
 H   +0.80981046   +0.61426747   -0.38835196
 H   -2.12806223   +0.06667920   +0.05388488
 H   -2.34739524   +4.21008819   +0.30207151
 H   -0.72401349   +2.33433463   -1.42865130
22
 * E =  +8.495 kcal/mol ; (63) 359_174_292_302_228
 C   +0.00000000   +0.00000000   +0.00000000
 C   +0.00000000   +0.00000000   +1.50439332
 O   +1.18415209   +0.00000000   +2.12913912
 O   -0.99836902   +0.02124790   +2.16476174
 C   +2.39466437   -0.02594619   +1.40846389
 H   +3.17939376   +0.06599665   +2.14893462
 H   +2.52122777   -0.96480644   +0.87403275
 H   +2.46708376   +0.80423646   +0.71014935
 C   -1.38778755   -0.15762848   -0.58744241
 C   -2.02878095   -1.51787094   -0.34598432
 C   -1.26885735   -2.70288194   -0.84837205
 C   -1.81670653   -3.69169990   -1.56820327
 H   +0.67295357   -0.77098527   -0.37489668
 H   -2.03437678   +0.60563331   -0.16035589
 H   -3.02055166   -1.52097494   -0.79502535
 H   -0.28027499   -2.86514031   -0.43510662
 H   -1.25775772   -4.57662409   -1.82874368
 H   -2.82792547   -3.61709762   -1.94109468
 H   +0.43631905   +0.94524841   -0.32710016
 H   -1.32546672   +0.02411088   -1.65935209
 H   -0.19547127   -1.86256324   -2.31899311
 H   -2.17176703   -1.63824838   +0.72828364
22
 * E =  +8.595 kcal/mol ; (64) 001_182_181_178_099
 C   +0.00000000   +0.00000000   +0.00000000
 C   +0.00000000   +0.00000000   +1.50407628
 O   +1.18499164   +0.00000000   +2.12878376
 O   -0.99954750   -0.00617181   +2.16063342
 C   +2.39404245   +0.02444038   +1.40686106
 H   +3.18101302   -0.02433330   +2.14901242
 H   +2.48340353   -0.82991140   +0.73999843
 H   +2.50199028   +0.94508237   +0.83770927
 C   -1.40186201   +0.04818071   -0.56590669
 C   -1.40337483   +0.01205066   -2.08707990
 C   -2.79632139   +0.00528976   -2.63192290
 C   -3.42142424   +1.09321052   -3.10026283
 H   +0.52340629   -0.89264275   -0.34771387
 H   -1.97368212   -0.78819627   -0.16797914
 H   -0.86904616   -0.87516878   -2.42755296
 H   -3.38021644   -0.88675291   -2.43949976
 H   -4.45971648   +1.06589324   -3.39074979
 H   -2.89205447   +2.02416747   -3.24434786
 H   +0.59037662   +0.84516918   -0.35704921
 H   -1.90525912   +0.94572577   -0.21354798
 H   -2.35874812   -0.90207906   -4.32230444
 H   -0.86505906   +0.87427845   -2.48153292
22
 * E =  +8.613 kcal/mol ; (65) 001_182_182_184_340
 C   +0.00000000   +0.00000000   +0.00000000
 C   +0.00000000   +0.00000000   +1.50408904
 O   +1.18521221   +0.00000000   +2.12853386
 O   -0.99933431   -0.00601727   +2.16107036
 C   +2.39375792   +0.02414577   +1.40593959
 H   +3.18123421   -0.01378794   +2.14820436
 H   +2.48735965   -0.83609269   +0.74717772
 H   +2.49674565   +0.93987817   +0.82813238
 C   -1.40134402   +0.05617093   -0.56552798
 C   -1.40196460   +0.01544604   -2.07832141
 C   -2.75261003   +0.16529748   -2.70891435
 C   -3.92433529   -0.04352124   -2.09355640
 H   +0.52035048   -0.89511388   -0.34637770
 H   -1.97639634   -0.77213094   -0.15779220
 H   -0.97606819   -0.93072835   -2.42348661
 H   -2.75269146   +0.27926523   -3.78560789
 H   -4.85221359   +0.00636357   -2.64089571
 H   -3.99115376   -0.21446006   -1.03011849
 H   +0.59384256   +0.84276828   -0.35648952
 H   -1.89336231   +0.96412283   -0.21981617
 H   -2.72622743   +2.13070427   -2.67379820
 H   -0.74477270   +0.79266273   -2.46998387
22
 * E =  +8.692 kcal/mol ; (66) 001_185_072_076_238
 C   +0.00000000   +0.00000000   +0.00000000
 C   +0.00000000   +0.00000000   +1.50424780
 O   +1.18577452   +0.00000000   +2.12612830
 O   -0.99706329   -0.01174724   +2.16717794
 C   +2.39356836   +0.02943018   +1.40078110
 H   +3.18169037   -0.03807829   +2.14029887
 H   +2.47502000   -0.81304571   +0.71828796
 H   +2.50483414   +0.95913794   +0.84766403
 C   -1.39659721   +0.12145492   -0.57324785
 C   -1.98898521   +1.51632816   -0.40506751
 C   -1.45770126   +2.56169633   -1.33587384
 C   -0.87271399   +3.69755307   -0.92270284
 H   +0.47553829   -0.92224285   -0.33631447
 H   -1.37083835   -0.14183018   -1.62988704
 H   -1.85447470   +1.83732079   +0.62604672
 H   -1.76621314   +2.48594882   -2.37188950
 H   -0.58496536   +4.47033652   -1.61828531
 H   -0.64351288   +3.85843974   +0.12085390
 H   +0.63557060   +0.80788950   -0.36464153
 H   -2.04008091   -0.59645247   -0.07111366
 H   +0.08058599   +1.72619954   -2.18745080
 H   -3.06532950   +1.45238973   -0.56672652
22
 * E =  +8.697 kcal/mol ; (67) 358_174_291_191_222
 C   +0.00000000   +0.00000000   +0.00000000
 C   +0.00000000   +0.00000000   +1.50554697
 O   +1.18535313   +0.00000000   +2.12886453
 O   -0.99743749   +0.02065470   +2.16590742
 C   +2.39499454   -0.03293767   +1.40783733
 H   +3.18066891   +0.05751260   +2.14751213
 H   +2.51720823   -0.97407775   +0.87629108
 H   +2.47147238   +0.79532956   +0.70754922
 C   -1.39015333   -0.14397976   -0.58419857
 C   -1.99083410   -1.52084681   -0.35375165
 C   -3.24086285   -1.79056247   -1.12816135
 C   -4.31863111   -2.40259790   -0.61880340
 H   +0.65608793   -0.79156240   -0.36399724
 H   -2.04247061   +0.61071386   -0.15109854
 H   -2.17554087   -1.66614004   +0.70772982
 H   -3.17699306   -1.65984254   -2.20247375
 H   -5.16228238   -2.66386616   -1.23803521
 H   -4.39492757   -2.61072528   +0.43827702
 H   +0.45435149   +0.93645518   -0.32751084
 H   -1.33730970   +0.05549398   -1.65453618
 H   -3.97366075   +0.05066686   -1.24939375
 H   -1.25650579   -2.27352176   -0.65653109
22
 * E =  +8.917 kcal/mol ; (68) 002_184_187_302_226
 C   +0.00000000   +0.00000000   +0.00000000
 C   +0.00000000   +0.00000000   +1.50421959
 O   +1.18572856   +0.00000000   +2.12785622
 O   -0.99841367   -0.01047040   +2.16247901
 C   +2.39355406   +0.04529980   +1.40527082
 H   +3.18161046   -0.01381656   +2.14560592
 H   +2.48762171   -0.79517409   +0.72152976
 H   +2.49519858   +0.97805397   +0.85504109
 C   -1.40200010   +0.08719243   -0.56078546
 C   -1.45628928   -0.07830826   -2.07156445
 C   -0.65092318   +0.89337592   -2.87495490
 C   -1.11535057   +1.52989616   -3.95858915
 H   +0.49822514   -0.90926271   -0.34449523
 H   -2.01393425   -0.67984351   -0.09232297
 H   -2.49357258   -0.03116000   -2.39840347
 H   +0.41510726   +0.92298018   -2.68287921
 H   -0.47547059   +2.15142558   -4.56485455
 H   -2.15792432   +1.47352544   -4.23604979
 H   +0.61191351   +0.83118046   -0.35205456
 H   -1.83941057   +1.04199453   -0.27496926
 H   -0.62402128   +2.44636440   -1.61359623
 H   -1.10124523   -1.08178615   -2.32247985
22
 * E =  +9.031 kcal/mol ; (69) 002_187_070_179_340
 C   +0.00000000   +0.00000000   +0.00000000
 C   +0.00000000   +0.00000000   +1.50577283
 O   +1.18560027   +0.00000000   +2.12901275
 O   -0.99754249   -0.02161671   +2.16533296
 C   +2.39543459   +0.03398542   +1.40851704
 H   +3.18075506   -0.05819236   +2.14838194
 H   +2.47214194   -0.79295520   +0.70664078
 H   +2.51852986   +0.97616694   +0.87901169
 C   -1.38822432   +0.15929489   -0.58541431
 C   -1.95325276   +1.54874474   -0.37769062
 C   -3.31987960   +1.76588706   -0.95145041
 C   -3.89712081   +1.02241499   -1.90604644
 H   +0.44550473   -0.94116819   -0.32611759
 H   -1.33374796   -0.06417264   -1.64978318
 H   -1.28524429   +2.28672678   -0.83177674
 H   -3.78372031   +2.70893383   -0.69117057
 H   -4.85292914   +1.30066076   -2.32079517
 H   -3.46750318   +0.09464484   -2.25111194
 H   +0.66408196   +0.78398879   -0.36529302
 H   -2.05656793   -0.56994981   -0.13053821
 H   -4.27194731   +1.08639634   +0.61605582
 H   -1.97600944   +1.76958977   +0.68764520
22
 * E =  +9.054 kcal/mol ; (70) 001_187_069_060_088
 C   +0.00000000   +0.00000000   +0.00000000
 C   +0.00000000   +0.00000000   +1.50514193
 O   +1.18403479   +0.00000000   +2.13050136
 O   -0.99880252   -0.02252771   +2.16390613
 C   +2.39474628   +0.02862808   +1.41082580
 H   +3.17892227   -0.07446052   +2.15043288
 H   +2.46449970   -0.79419797   +0.70350711
 H   +2.52536004   +0.97310039   +0.88719468
 C   -1.38838876   +0.17715124   -0.58175254
 C   -1.99503616   +1.55879279   -0.35273434
 C   -1.17317439   +2.65862905   -0.95278619
 C   -1.31407554   +3.09356654   -2.21219533
 H   +0.42394028   -0.95142715   -0.32562185
 H   -1.33669955   -0.01515557   -1.65234168
 H   -2.12158584   +1.71714338   +0.71515148
 H   -0.30653370   +2.98890166   -0.39249522
 H   -0.64722307   +3.82848314   -2.63517376
 H   -2.13503500   +2.75850471   -2.83031072
 H   +0.68066364   +0.76503322   -0.37218301
 H   -2.04776241   -0.56878483   -0.14363616
 H   -2.07106337   +4.09755625   +0.05820342
 H   -2.98900861   +1.57487808   -0.79606316
22
 * E =  +9.056 kcal/mol ; (71) 359_178_179_187_218
 C   +0.00000000   +0.00000000   +0.00000000
 C   +0.00000000   +0.00000000   +1.50396343
 O   +1.18578838   +0.00000000   +2.12826342
 O   -0.99881656   +0.00753541   +2.16117977
 C   +2.39464176   -0.02534664   +1.40657100
 H   +3.18157073   +0.01600242   +2.14929445
 H   +2.49967528   -0.94308845   +0.83224649
 H   +2.48844734   +0.83267002   +0.74493750
 C   -1.40040089   -0.05840121   -0.56842660
 C   -1.39344695   -0.02840643   -2.08618486
 C   -2.74446988   +0.08367466   -2.71753405
 C   -3.09998395   -0.54668951   -3.84481167
 H   +0.59604057   -0.84136207   -0.35672386
 H   -1.89895706   -0.95633058   -0.21066111
 H   -0.88127849   -0.90615221   -2.48128227
 H   -3.38222108   +0.87386462   -2.33924645
 H   -4.05123940   -0.35968828   -4.31721659
 H   -2.46443848   -1.29727017   -4.29193980
 H   +0.51958252   +0.89595588   -0.34574371
 H   -1.97982604   +0.77596705   -0.17675105
 H   -3.79763165   -0.99794549   -1.41976086
 H   -0.81238671   +0.83840399   -2.41385111
22
 * E =  +9.058 kcal/mol ; (72) 359_179_175_061_091
 C   +0.00000000   +0.00000000   +0.00000000
 C   +0.00000000   +0.00000000   +1.50404211
 O   +1.18529157   +0.00000000   +2.12829161
 O   -0.99903964   +0.00434662   +2.16155483
 C   +2.39375346   -0.02173685   +1.40556471
 H   +3.18125605   +0.01456188   +2.14789198
 H   +2.49742224   -0.93597064   +0.82542724
 H   +2.48697270   +0.84031975   +0.74914608
 C   -1.40526737   -0.03037561   -0.56029320
 C   -1.44862630   +0.07941435   -2.07976127
 C   -0.73658304   -1.04564129   -2.76693966
 C   -1.33459988   -2.18326099   -3.14410644
 H   +0.57983034   -0.85466576   -0.35001011
 H   -1.89480896   -0.94837626   -0.24197394
 H   -1.01685813   +1.03197606   -2.38661270
 H   +0.34584479   -1.00419669   -2.78672743
 H   -0.77303198   -3.00844275   -3.55297685
 H   -2.40830581   -2.29404112   -3.09168242
 H   +0.53461004   +0.88597835   -0.34885384
 H   -1.97515505   +0.78503197   -0.12065938
 H   -0.57189293   -0.11086193   -4.49965755
 H   -2.48873373   +0.09107117   -2.40010091
22
 * E =  +9.342 kcal/mol ; (73) 357_177_182_078_235
 C   +0.00000000   +0.00000000   +0.00000000
 C   +0.00000000   +0.00000000   +1.50267012
 O   +1.18507320   +0.00000000   +2.12721400
 O   -0.99944186   +0.01193639   +2.16033952
 C   +2.39175143   -0.05757099   +1.40310514
 H   +3.18127451   -0.00155410   +2.14213988
 H   +2.48462982   -0.99279422   +0.85573554
 H   +2.49082998   +0.77950529   +0.71590774
 C   -1.40166624   -0.07272246   -0.56348117
 C   -1.41603494   -0.13287102   -2.08565100
 C   -1.09547804   -1.46454191   -2.69124910
 C   -0.12526246   -1.65958489   -3.59762169
 H   +0.60392268   -0.83341414   -0.36087633
 H   -1.91370014   -0.93754815   -0.14523324
 H   -0.73497813   +0.61642866   -2.49125914
 H   -1.83528888   -2.24269755   -2.54680838
 H   +0.01113396   -2.61382113   -4.08162899
 H   +0.57501462   -0.87448775   -3.84409594
 H   +0.50208693   +0.90596838   -0.34565909
 H   -1.95920794   +0.79705425   -0.22462258
 H   -0.34787379   -2.49778263   -1.21548848
 H   -2.41358233   +0.14250875   -2.42983432
22
 * E =  +9.444 kcal/mol ; (74) 005_193_066_063_179
 C   +0.00000000   +0.00000000   +0.00000000
 C   +0.00000000   +0.00000000   +1.50634893
 O   +1.17817313   +0.00000000   +2.13733096
 O   -1.00428113   -0.04199923   +2.15749010
 C   +2.38916217   +0.10997335   +1.42535586
 H   +3.17443118   -0.00553165   +2.16206412
 H   +2.48919993   -0.67084377   +0.67496600
 H   +2.48074286   +1.08796995   +0.95754453
 C   -1.36874797   +0.32001433   -0.56663628
 C   -1.85007654   +1.73086215   -0.26992291
 C   -1.00417359   +2.81333568   -0.87886575
 C   -1.25708141   +4.12384640   -0.76307335
 H   +0.31893170   -0.99391085   -0.32096431
 H   -1.33978916   +0.16599985   -1.64554956
 H   -1.92607280   +1.86958234   +0.80641032
 H   -0.25315536   +2.50221411   -1.59742593
 H   -0.66486395   +4.85790332   -1.28589999
 H   -2.03492877   +4.49045608   -0.10892759
 H   +0.75008341   +0.69202921   -0.37694846
 H   -2.08797406   -0.38596418   -0.15957234
 H   +0.47644796   +2.77485539   +0.46351965
 H   -2.86185506   +1.83249768   -0.66226841
22
 * E =  +9.717 kcal/mol ; (75) 000_182_184_076_356
 C   +0.00000000   +0.00000000   +0.00000000
 C   +0.00000000   +0.00000000   +1.50293256
 O   +1.18521650   +0.00000000   +2.12742745
 O   -0.99926815   -0.00252990   +2.16073092
 C   +2.39354403   +0.00595543   +1.40377877
 H   +3.18130330   -0.01989661   +2.14626615
 H   +2.48317575   -0.86742335   +0.76202690
 H   +2.49956055   +0.90943412   +0.80747913
 C   -1.40364773   +0.04506906   -0.56863464
 C   -1.42689039   -0.04047910   -2.08309865
 C   -1.18971514   -1.40217516   -2.67135252
 C   -0.88368925   -2.51785438   -1.98953525
 H   +0.54061296   -0.87789149   -0.35463403
 H   -2.00386241   -0.74905536   -0.12911833
 H   -0.67383446   +0.63333924   -2.50002344
 H   -1.07283016   -1.42105699   -3.74774918
 H   -0.66047121   -3.43700900   -2.50754467
 H   -0.92655488   -2.56379379   -0.91181280
 H   +0.57591197   +0.85733561   -0.35224280
 H   -1.87404008   +0.97180688   -0.24900388
 H   -3.00748872   -1.81252042   -3.08977793
 H   -2.37990201   +0.33339738   -2.45324622
22
 * E =  +9.894 kcal/mol ; (76) 001_181_177_066_176
 C   +0.00000000   +0.00000000   +0.00000000
 C   +0.00000000   +0.00000000   +1.50343599
 O   +1.18566518   +0.00000000   +2.12587376
 O   -0.99906267   -0.00345363   +2.16192066
 C   +2.39280345   +0.01429995   +1.39925531
 H   +3.18191499   -0.00990953   +2.14033099
 H   +2.48561110   -0.85603965   +0.75406026
 H   +2.49259378   +0.91979133   +0.80527945
 C   -1.40435222   +0.02888967   -0.56208447
 C   -1.44763226   +0.11031512   -2.07739478
 C   -0.90606312   -1.10615251   -2.77685142
 C   -0.92380852   -1.28327559   -4.10410935
 H   +0.54714467   -0.87673243   -0.34865063
 H   -1.94337925   -0.85358877   -0.22034356
 H   -0.91650378   +0.99909000   -2.41911550
 H   -0.65495570   -1.95564716   -2.15132133
 H   -0.59386126   -2.20753783   -4.55089772
 H   -1.23132614   -0.49294909   -4.77384608
 H   +0.57421847   +0.85613377   -0.35821927
 H   -1.93274928   +0.87790397   -0.13529382
 H   +1.03074205   -0.65132292   -2.61919663
 H   -2.48491012   +0.24226188   -2.38403466
22
 * E = +10.071 kcal/mol ; (77) 007_088_056_055_088
 C   +0.00000000   +0.00000000   +0.00000000
 C   +0.00000000   +0.00000000   +1.50298947
 O   +1.16897480   +0.00000000   +2.15473817
 O   -1.01291317   -0.05444054   +2.14072331
 C   +2.39403845   +0.14830513   +1.47402171
 H   +3.16428622   +0.01781311   +2.22403564
 H   +2.52264910   -0.60369850   +0.69986904
 H   +2.48704880   +1.14187453   +1.04143315
 C   +0.04206422   -1.42195710   -0.56206011
 C   -1.08238660   -2.32582029   -0.06469866
 C   -2.43911952   -1.74561081   -0.32451682
 C   -3.11890881   -1.93476422   -1.46294404
 H   +0.82160180   +0.58209461   -0.40788060
 H   -0.01438931   -1.34623751   -1.64681439
 H   -0.96469097   -2.50654620   +1.00188791
 H   -2.77866846   -0.99742669   +0.38048819
 H   -4.05527588   -1.43280024   -1.64984837
 H   -2.77765742   -2.63591474   -2.21189847
 H   -0.92702977   +0.47824267   -0.30153518
 H   +0.99847040   -1.89069435   -0.32920725
 H   -3.36795224   -2.99128254   +0.90039906
 H   -0.99305695   -3.28915673   -0.56397053
22
 * E = +10.084 kcal/mol ; (78) 004_094_175_294_339
 C   +0.00000000   +0.00000000   +0.00000000
 C   +0.00000000   +0.00000000   +1.50293767
 O   +1.16839250   +0.00000000   +2.15752550
 O   -1.01411623   -0.05031420   +2.13743104
 C   +2.39702376   +0.07616675   +1.47284126
 H   +3.16267288   -0.05400383   +2.22775102
 H   +2.49610575   -0.71178525   +0.72983056
 H   +2.52827286   +1.04663691   +0.99978247
 C   -0.10317299   -1.43083969   -0.52147374
 C   -0.23506920   -1.50592375   -2.03079429
 C   -1.49954380   -0.94099882   -2.60638716
 C   -2.64546789   -0.75175301   -1.93900331
 H   +0.87310084   +0.49022225   -0.42268576
 H   +0.77907129   -1.99610835   -0.22115462
 H   -0.17793914   -2.55247609   -2.33658247
 H   -1.51739760   -0.86026394   -3.68591165
 H   -3.53647167   -0.42867677   -2.45351206
 H   -2.71660923   -0.86908191   -0.86766795
 H   -0.87370797   +0.56697889   -0.30416887
 H   -0.95092131   -1.91915832   -0.04345457
 H   -0.85567784   +0.92536391   -2.73556498
 H   +0.61873533   -1.01613250   -2.49992878
22
 * E = +10.172 kcal/mol ; (79) 354_270_183_184_338
 C   +0.00000000   +0.00000000   +0.00000000
 C   +0.00000000   +0.00000000   +1.50399300
 O   +1.17256630   +0.00000000   +2.15034603
 O   -1.01051369   +0.05168668   +2.14307092
 C   +2.39688743   -0.12036822   +1.46277857
 H   +3.16803089   +0.01537937   +2.21097478
 H   +2.50535469   -1.10768431   +1.01945638
 H   +2.51017320   +0.64225848   +0.69637433
 C   +0.01083568   +1.42808760   -0.53435318
 C   -0.05541577   +1.46219211   -2.04621185
 C   +0.05193155   +2.82970867   -2.64789640
 C   -0.22416516   +3.98034862   -2.02007220
 H   -0.91819232   -0.49486490   -0.30220362
 H   -0.83565131   +1.96013941   -0.10412892
 H   -0.99555800   +1.01696004   -2.38085599
 H   +0.20090836   +2.85510234   -3.71990924
 H   -0.19865833   +4.91901368   -2.55024038
 H   -0.43524293   +4.02225296   -0.96252938
 H   +0.83520912   -0.56210510   -0.41099983
 H   +0.90988006   +1.95286306   -0.20679104
 H   +2.02299706   +2.87528408   -2.52840454
 H   +0.73287409   +0.83340194   -2.46062127
22
 * E = +10.235 kcal/mol ; (80) 005_091_178_296_103
 C   +0.00000000   +0.00000000   +0.00000000
 C   +0.00000000   +0.00000000   +1.50326814
 O   +1.17206829   +0.00000000   +2.15317620
 O   -1.01050187   -0.05019804   +2.14240268
 C   +2.39787553   +0.10176244   +1.46729087
 H   +3.16690636   -0.03093537   +2.21833574
 H   +2.50593867   -0.67219694   +0.71104746
 H   +2.51627981   +1.08165038   +1.01020841
 C   -0.03631093   -1.42901379   -0.53012025
 C   -0.07770890   -1.49826229   -2.05292376
 C   -1.32870926   -0.90053448   -2.61511501
 C   -1.39062331   +0.30767163   -3.19203319
 H   +0.85339945   +0.53145223   -0.41506265
 H   +0.83565297   -1.98149756   -0.17960179
 H   -0.00167037   -2.54244864   -2.35045573
 H   -2.25474446   -1.39547294   -2.34676610
 H   -2.33067870   +0.73812280   -3.49924331
 H   -0.49360615   +0.86697593   -3.41662224
 H   -0.89856577   +0.52521221   -0.30715315
 H   -0.90715658   -1.93227444   -0.11174181
 H   -1.43061921   -2.04790340   -4.19063000
 H   +0.78929852   -0.98619826   -2.47103247
22
 * E = +10.238 kcal/mol ; (81) 354_270_183_178_099
 C   +0.00000000   +0.00000000   +0.00000000
 C   +0.00000000   +0.00000000   +1.50399096
 O   +1.17231474   +0.00000000   +2.15163876
 O   -1.01069216   +0.05120627   +2.14251741
 C   +2.39660398   -0.11888007   +1.46497008
 H   +3.16757549   +0.01608297   +2.21351797
 H   +2.50604744   -1.10511206   +1.01942102
 H   +2.50944584   +0.64555289   +0.70008337
 C   +0.00724638   +1.42809832   -0.53513976
 C   -0.06825754   +1.46499892   -2.05471029
 C   -0.12044629   +2.87039527   -2.56418600
 C   +0.94498661   +3.53560649   -3.02956138
 H   -0.91823922   -0.49477271   -0.30202239
 H   -0.84043902   +1.96247328   -0.10819104
 H   -0.95159813   +0.91599554   -2.37902988
 H   -1.02543157   +3.42470624   -2.34666784
 H   +0.88655157   +4.57929133   -3.29497488
 H   +1.88659383   +3.03402286   -3.20184423
 H   +0.83444860   -0.56187690   -0.41300053
 H   +0.90205425   +1.95699830   -0.20682895
 H   -1.04221167   +2.44149946   -4.24647667
 H   +0.79577209   +0.95494909   -2.48078784
22
 * E = +10.325 kcal/mol ; (82) 006_090_177_178_098
 C   +0.00000000   +0.00000000   +0.00000000
 C   +0.00000000   +0.00000000   +1.50390219
 O   +1.17293846   +0.00000000   +2.15100830
 O   -1.01008045   -0.05172335   +2.14319209
 C   +2.39630134   +0.12961733   +1.46485693
 H   +3.16825775   -0.00272509   +2.21286180
 H   +2.51467727   -0.63111334   +0.69704661
 H   +2.49904805   +1.11806261   +1.02266219
 C   +0.00718944   -1.42793778   -0.53589082
 C   -0.06930589   -1.46317814   -2.05545396
 C   -0.02400015   -2.86570237   -2.57386129
 C   -1.11019005   -3.56709102   -2.92286174
 H   +0.83458471   +0.56196097   -0.41258487
 H   +0.90524011   -1.95142408   -0.20421582
 H   +0.75574605   -0.88480817   -2.47099411
 H   +0.91794148   -3.38908804   -2.46089260
 H   -1.04494980   -4.60797203   -3.19759254
 H   -2.08234152   -3.09950310   -2.98388961
 H   -0.91817530   +0.49476806   -0.30228382
 H   -0.83756354   -1.96827780   -0.11323381
 H   +0.69552567   -2.40303871   -4.34628371
 H   -0.98971357   -0.98184891   -2.38465555
22
 * E = +10.406 kcal/mol ; (83) 007_086_061_182_337
 C   +0.00000000   +0.00000000   +0.00000000
 C   +0.00000000   +0.00000000   +1.50421790
 O   +1.17204134   +0.00000000   +2.15110920
 O   -1.00992910   -0.04821589   +2.14603190
 C   +2.39568506   +0.15584952   +1.46979031
 H   +3.16695864   +0.02587177   +2.21884537
 H   +2.52829126   -0.59234655   +0.69293989
 H   +2.48416575   +1.15185095   +1.04152547
 C   +0.09094036   -1.41610735   -0.56882161
 C   -1.07593994   -2.29490140   -0.16952981
 C   -0.99461245   -3.70059372   -0.67944400
 C   -0.28888952   -4.11169956   -1.74210277
 H   +0.80485335   +0.61116153   -0.39958881
 H   +0.13950155   -1.33062674   -1.65318720
 H   -2.00657711   -1.85426971   -0.53505749
 H   -1.70528688   -4.39090150   -0.24306789
 H   -0.35190275   -5.13151893   -2.08690442
 H   +0.40221542   -3.46453158   -2.26027666
 H   -0.94137923   +0.45127782   -0.29922492
 H   +1.01788003   -1.89832358   -0.25433858
 H   +0.22246559   -4.29555830   +0.75154890
 H   -1.17537440   -2.31292085   +0.91382904
22
 * E = +10.411 kcal/mol ; (84) 006_089_177_187_218
 C   +0.00000000   +0.00000000   +0.00000000
 C   +0.00000000   +0.00000000   +1.50406043
 O   +1.17196953   +0.00000000   +2.15160617
 O   -1.01108423   -0.04852563   +2.14234220
 C   +2.39666029   +0.11535943   +1.46466658
 H   +3.16724307   -0.02151847   +2.21324035
 H   +2.50761445   -0.64949191   +0.70011131
 H   +2.50851814   +1.10145079   +1.01933869
 C   +0.01829903   -1.42647436   -0.53852833
 C   -0.05864907   -1.45605588   -2.05448714
 C   -0.21379054   -2.82053331   -2.64584815
 C   +0.38625242   -3.22039830   -3.77476161
 H   +0.83125637   +0.56862724   -0.41081075
 H   +0.91585198   -1.94968556   -0.20974255
 H   +0.81547106   -0.96879024   -2.48664748
 H   -1.00961488   -3.43018377   -2.23464716
 H   +0.16823748   -4.17922908   -4.21753538
 H   +1.13914421   -2.61287717   -4.25562131
 H   -0.92127485   +0.49023388   -0.30062371
 H   -0.82470678   -1.97059116   -0.11407528
 H   +0.88075785   -3.86583066   -1.34691795
 H   -0.92488729   -0.86541236   -2.36328842
22
 * E = +10.544 kcal/mol ; (85) 007_089_179_184_340
 C   +0.00000000   +0.00000000   +0.00000000
 C   +0.00000000   +0.00000000   +1.50392365
 O   +1.17421990   +0.00000000   +2.14960515
 O   -1.00883002   -0.05246315   +2.14474189
 C   +2.39621525   +0.13978844   +1.46303710
 H   +3.16955619   +0.00780888   +2.20970867
 H   +2.51862313   -0.61591931   +0.69091148
 H   +2.49318898   +1.13125783   +1.02625128
 C   +0.02854660   -1.42730572   -0.53665559
 C   -0.00121928   -1.45622416   -2.04957226
 C   -0.06677845   -2.82526008   -2.65446833
 C   +0.27587892   -3.96623216   -2.04114613
 H   +0.82841976   +0.57385480   -0.40916499
 H   +0.91717915   -1.94390724   -0.17287884
 H   +0.88750826   -0.95737932   -2.44519778
 H   -0.23514728   -2.85035126   -3.72361526
 H   +0.27753468   -4.90221134   -2.57661870
 H   +0.50432255   -4.00691406   -0.98721615
 H   -0.92387802   +0.48306994   -0.30321812
 H   -0.83066484   -1.96896659   -0.14271740
 H   -2.01971859   -2.96319379   -2.52137426
 H   -0.84933882   -0.87140692   -2.40525637
22
 * E = +10.568 kcal/mol ; (86) 351_274_296_179_097
 C   +0.00000000   +0.00000000   +0.00000000
 C   +0.00000000   +0.00000000   +1.50340529
 O   +1.17514352   +0.00000000   +2.14746301
 O   -1.00724402   +0.05638097   +2.14796448
 C   +2.39404130   -0.18721815   +1.46576907
 H   +3.16946365   -0.06324694   +2.21161116
 H   +2.46272531   -1.18957802   +1.04892325
 H   +2.53933764   +0.54840010   +0.67885778
 C   +0.09905763   +1.41979247   -0.55905901
 C   -1.10148163   +2.28912303   -0.20865049
 C   -0.93564112   +3.67134111   -0.75600637
 C   -1.47483743   +4.08905277   -1.90915794
 H   -0.94305398   -0.44464316   -0.30366870
 H   +1.01082478   +1.90196989   -0.20314048
 H   -1.22997587   +2.31980764   +0.87120268
 H   -0.17484348   +4.28449627   -0.28739641
 H   -1.25388967   +5.06349413   -2.31540556
 H   -2.19287134   +3.48250080   -2.44234554
 H   +0.80320739   -0.61269271   -0.40034591
 H   +0.19072763   +1.35620639   -1.64199923
 H   -2.11745270   +4.55053082   +0.54253816
 H   -2.00605034   +1.83830265   -0.61515693
22
 * E = +10.955 kcal/mol ; (87) 353_271_178_061_093
 C   +0.00000000   +0.00000000   +0.00000000
 C   +0.00000000   +0.00000000   +1.50355920
 O   +1.17432394   +0.00000000   +2.14935558
 O   -1.00867170   +0.05337058   +2.14474374
 C   +2.39650993   -0.13807342   +1.46287267
 H   +3.16961448   -0.00675747   +2.20991233
 H   +2.49429969   -1.12865289   +1.02427961
 H   +2.51838679   +0.61889374   +0.69183443
 C   +0.02753184   +1.43127876   -0.52930451
 C   +0.08440887   +1.50461685   -2.05092015
 C   -1.09894435   +0.86235538   -2.70719897
 C   -2.20450819   +1.53162212   -3.05769176
 H   -0.92300324   -0.48541371   -0.30047793
 H   -0.85894796   +1.94958128   -0.16862717
 H   +1.00321547   +1.03322997   -2.39933698
 H   -1.12580914   -0.22011389   -2.72156508
 H   -3.07428894   +1.02245920   -3.44154617
 H   -2.24609168   +2.61023349   -3.00572536
 H   +0.83074092   -0.56973778   -0.41102538
 H   +0.88840037   +1.96249626   -0.12219554
 H   -0.21862177   +0.63553944   -4.46125529
 H   +0.13494714   +2.55015673   -2.34986731
22
 * E = +11.575 kcal/mol ; (88) 006_286_309_075_083
 C   +0.00000000   +0.00000000   +0.00000000
 C   +0.00000000   +0.00000000   +1.50590724
 O   +1.16033132   +0.00000000   +2.16937784
 O   -1.01757000   -0.01014107   +2.13948639
 C   +2.40968018   +0.11992329   +1.52976942
 H   +3.14225303   -0.25315942   +2.23531639
 H   +2.46593040   -0.47041327   +0.61916045
 H   +2.62200659   +1.16326521   +1.31052728
 C   +0.38293492   +1.32049039   -0.66444164
 C   -0.37539384   +2.54329323   -0.15197134
 C   +0.09340573   +3.01155605   +1.19612611
 C   +1.15697432   +3.80973536   +1.36057910
 H   -1.02029129   -0.25320115   -0.27022206
 H   +1.45175776   +1.50552420   -0.57848921
 H   -1.44136572   +2.32386131   -0.11993998
 H   -0.34281844   +2.54131974   +2.06714513
 H   +1.52025828   +4.06534036   +2.34360593
 H   +1.65397043   +4.26737458   +0.51600116
 H   +0.64174279   -0.79655339   -0.37396525
 H   +0.17947221   +1.20503924   -1.72807545
 H   -1.40786614   +4.28590744   +1.42324458
 H   -0.23962511   +3.35111131   -0.86894490
