22
 * E =  +0.000 kcal/mol ; (1) 180_175_102_286
 C   +0.00000000   +0.00000000   +0.00000000
 O   +0.00000000   +0.00000000   +1.41460751
 C   +1.20487592   +0.00000000   +1.98765380
 C   +1.07467006   +0.00949176   +3.44954349
 C   +2.08716191   -0.07704548   +4.31275491
 C   +3.54766397   -0.16881422   +4.03282505
 C   +4.19221111   +1.18146397   +4.25035392
 C   +3.94047210   +2.22094565   +3.20261240
 O   +2.22519658   +0.00097727   +1.34537269
 H   +4.22675740   +1.85778351   +2.21889819
 H   +0.49619854   -0.88798489   -0.37948722
 H   +4.49123438   +3.13398562   +3.41413477
 H   +2.88027334   +2.47494976   +3.15365678
 H   +5.48774453   +0.92820978   +4.20387575
 H   +4.09066072   +1.54676596   +5.27032231
 H   +3.72879760   -0.50230164   +3.01721954
 H   +3.98760540   -0.88981895   +4.72179531
 H   +1.82222906   -0.04420137   +5.36300390
 H   +0.06293842   +0.08599528   +3.81588624
 H   -1.04079434   +0.01071697   -0.29640695
 H   +0.51517626   +0.87723804   -0.37925873
 H   +6.40250896   +0.72117832   +4.14821569
22
 * E =  +0.243 kcal/mol ; (2) 180_182_130_173
 C   +0.00000000   +0.00000000   +0.00000000
 O   +0.00000000   +0.00000000   +1.41475567
 C   +1.20672592   +0.00000000   +1.98406307
 C   +1.08105015   -0.00074128   +3.44719976
 C   +2.09539913   +0.04377599   +4.30927117
 C   +3.55526711   +0.10528137   +4.02884900
 C   +4.22810220   +1.21128855   +4.79595595
 C   +5.72117088   +1.26452641   +4.70549997
 O   +2.22334619   +0.00016980   +1.33578852
 H   +6.16492375   +0.31058512   +4.98450410
 H   +0.51097293   -0.87965428   -0.37917726
 H   +6.13164125   +2.03223579   +5.35624232
 H   +6.04052113   +1.48837114   +3.68661832
 H   +3.96457412   +0.94081577   +6.07649384
 H   +3.74286874   +2.17665843   +4.67676823
 H   +3.73857956   +0.20926778   +2.96195569
 H   +3.99831854   -0.84741108   +4.33317222
 H   +1.83508372   +0.04117472   +5.36152610
 H   +0.06753728   -0.03634281   +3.81461435
 H   -1.04090783   -0.00592893   -0.29621873
 H   +0.50044051   +0.88561389   -0.37938595
 H   +3.80205631   +0.68982662   +6.96444545
22
 * E =  +0.328 kcal/mol ; (3) 180_173_086_175
 C   +0.00000000   +0.00000000   +0.00000000
 O   +0.00000000   +0.00000000   +1.41494906
 C   +1.20600269   +0.00000000   +1.98368745
 C   +1.09708469   +0.00592951   +3.44614623
 C   +2.13425008   -0.12675694   +4.27200479
 C   +3.56982625   -0.29443294   +3.90477530
 C   +4.25592597   +1.02853332   +3.67825860
 C   +5.72612379   +0.96620902   +3.40856581
 O   +2.22582283   +0.00383282   +1.33913473
 H   +6.24829877   +0.41415267   +4.18806849
 H   +0.49707833   -0.88745736   -0.37943601
 H   +6.15990309   +1.96116905   +3.35024984
 H   +5.92088371   +0.46373185   +2.45996549
 H   +4.13534749   +1.68067679   +4.84446013
 H   +3.70360216   +1.67373241   +3.00200761
 H   +3.65770077   -0.88347545   +2.99232783
 H   +4.08310728   -0.83119203   +4.70238891
 H   +1.91589223   -0.08700855   +5.33130611
 H   +0.09944157   +0.12197965   +3.83903465
 H   -1.04084089   +0.00952108   -0.29629446
 H   +0.51401308   +0.87791877   -0.37912445
 H   +4.07612352   +2.08397129   +5.68125769
22
 * E =  +0.374 kcal/mol ; (4) 181_186_255_060
 C   +0.00000000   +0.00000000   +0.00000000
 O   +0.00000000   +0.00000000   +1.41490450
 C   +1.20569392   +0.00000000   +1.98509042
 C   +1.08316296   -0.01614872   +3.44818308
 C   +2.10010977   +0.09261071   +4.30152301
 C   +3.54941199   +0.26606007   +4.00211500
 C   +4.33355255   -1.00782524   +4.21499998
 C   +3.94046687   -2.19625872   +3.39496619
 O   +2.22426286   -0.00037700   +1.33945063
 H   +2.88526953   -2.43118741   +3.51712729
 H   +0.51492753   -0.87742166   -0.37902310
 H   +4.51912282   -3.07379503   +3.67203451
 H   +4.10541738   -1.99885469   +2.33520380
 H   +4.10367011   -1.34399096   +5.49203673
 H   +5.40469246   -0.82814134   +4.24270321
 H   +3.94280785   +1.03363028   +4.66873174
 H   +3.68916404   +0.60323385   +2.97751751
 H   +1.85303410   +0.03641217   +5.35480026
 H   +0.07688873   -0.12661443   +3.82087192
 H   -1.04084661   -0.01063086   -0.29621385
 H   +0.49615408   +0.88794612   -0.37949038
 H   +3.91120332   -1.56121508   +6.37983729
22
 * E =  +0.398 kcal/mol ; (5) 180_183_167_174
 C   +0.00000000   +0.00000000   +0.00000000
 O   +0.00000000   +0.00000000   +1.41463535
 C   +1.20605486   +0.00000000   +1.98427607
 C   +1.10169920   -0.01013444   +3.44488732
 C   +2.15638162   +0.04486258   +4.25697133
 C   +3.59598761   +0.13242360   +3.87777018
 C   +4.48205401   +0.49247116   +5.03382980
 C   +5.95575636   +0.46940980   +4.77615397
 O   +2.22754969   +0.00365360   +1.34242656
 H   +6.26685663   -0.49096021   +4.36942798
 H   +0.51353720   -0.87821555   -0.37922463
 H   +6.52235609   +0.65176930   +5.68554248
 H   +6.23682500   +1.23595728   +4.05216790
 H   +4.26488296   -0.46479982   +5.93443118
 H   +4.14476418   +1.37083058   +5.57990197
 H   +3.72054207   +0.84493573   +3.06056991
 H   +3.90933096   -0.82250891   +3.44981865
 H   +1.95166002   +0.01776646   +5.32065713
 H   +0.10352558   -0.06847573   +3.84845143
 H   -1.04080816   -0.00897206   -0.29660083
 H   +0.49779042   +0.88703820   -0.37968300
 H   +4.11363863   -1.17285138   +6.53154834
22
 * E =  +0.412 kcal/mol ; (6) 180_177_227_058
 C   +0.00000000   +0.00000000   +0.00000000
 O   +0.00000000   +0.00000000   +1.41472162
 C   +1.20607889   +0.00000000   +1.98528935
 C   +1.07870635   +0.00278733   +3.44815301
 C   +2.09269930   -0.04572990   +4.31036840
 C   +3.55501925   -0.09783723   +4.03334804
 C   +4.25104772   -1.15129245   +4.85439210
 C   +3.76363970   -2.55927485   +4.70671966
 O   +2.22384820   -0.00164124   +1.33886313
 H   +2.69313958   -2.63021175   +4.88994256
 H   +0.49505449   -0.88862408   -0.37948183
 H   +4.27101556   -3.22956177   +5.39567381
 H   +3.94270580   -2.92423868   +3.69389372
 H   +3.99902052   -0.81190540   +6.12459798
 H   +5.33260696   -1.05605625   +4.82785797
 H   +3.97464895   +0.87926744   +4.28404073
 H   +3.73724510   -0.25286072   +2.97223725
 H   +1.83168852   -0.04167694   +5.36295999
 H   +0.06516253   +0.04345051   +3.81512103
 H   -1.04082959   +0.01197426   -0.29628984
 H   +0.51630711   +0.87656394   -0.37909781
 H   +3.78528285   -0.55933367   +6.99938788
22
 * E =  +0.605 kcal/mol ; (7) 180_189_272_295
 C   +0.00000000   +0.00000000   +0.00000000
 O   +0.00000000   +0.00000000   +1.41513692
 C   +1.20686508   +0.00000000   +1.98254569
 C   +1.09994402   +0.00558774   +3.44492442
 C   +2.13472438   +0.17274906   +4.26892965
 C   +3.56896927   +0.37752741   +3.90568921
 C   +4.27531582   -0.94852977   +3.75618704
 C   +4.41594736   -1.79667189   +4.98322299
 O   +2.22586156   -0.01267430   +1.33754213
 H   +4.84442293   -1.22894005   +5.80780798
 H   +0.50992582   -0.88021607   -0.37927994
 H   +5.05840748   -2.65348242   +4.79598723
 H   +3.44977966   -2.18160398   +5.31300034
 H   +5.51490365   -0.61171636   +3.42574962
 H   +3.95036073   -1.48623899   +2.87062026
 H   +4.05173623   +0.95608610   +4.69289813
 H   +3.64773766   +0.92562623   +2.97218027
 H   +1.91343697   +0.13653876   +5.32823836
 H   +0.10561121   -0.12856179   +3.84073701
 H   -1.04087270   -0.00444477   -0.29631059
 H   +0.50160849   +0.88504918   -0.37901934
 H   +6.39535129   -0.35141977   +3.24173777
22
 * E =  +1.800 kcal/mol ; (8) 180_356_103_286
 C   +0.00000000   +0.00000000   +0.00000000
 O   +0.00000000   +0.00000000   +1.41654760
 C   +1.20603970   +0.00000000   +1.98398324
 C   +1.20351955   +0.00809985   +3.45300634
 C   +0.17537955   +0.09195261   +4.29838807
 C   -1.29148273   +0.16254983   +4.03892893
 C   -1.91957453   -1.18450647   +4.31479397
 C   -1.67657213   -2.25811773   +3.30005276
 O   +2.22219409   -0.01342253   +1.33737870
 H   -2.01767453   -1.94597207   +2.31557128
 H   +0.49955239   -0.88608959   -0.37876583
 H   -2.18975622   -3.17805613   +3.56735840
 H   -0.61161713   -2.48054318   +3.21655695
 H   -3.22026714   -0.94568019   +4.28108216
 H   -1.79461475   -1.51291287   +5.34424260
 H   -1.50341427   +0.46703758   +3.02053920
 H   -1.72340213   +0.90142890   +4.71398840
 H   +0.43841766   +0.07085186   +5.34970249
 H   +2.20434257   -0.05539130   +3.85076887
 H   -1.04126735   +0.00698834   -0.29572997
 H   +0.51119266   +0.87925640   -0.37906826
 H   -4.13579372   -0.74846514   +4.22496249
22
 * E =  +8.883 kcal/mol ; (9) 353_157_093_175
 C   +0.00000000   +0.00000000   +0.00000000
 O   +0.00000000   +0.00000000   +1.40940396
 C   +1.14239014   +0.00000000   +2.10733471
 C   +2.40355965   -0.16793333   +1.36161539
 C   +3.58364692   +0.23896523   +1.82963415
 C   +3.85992080   +0.93052319   +3.11931365
 C   +4.21284353   -0.04818373   +4.21049240
 C   +4.62954450   +0.55055198   +5.51654894
 O   +1.08577673   +0.12010293   +3.30128112
 H   +5.44608000   +1.25853128   +5.38572904
 H   +0.29387310   -0.96948553   -0.39687337
 H   +4.95396660   -0.21531960   +6.21620371
 H   +3.79679836   +1.08575111   +5.97505128
 H   +5.29789118   -0.69178871   +3.75179734
 H   +3.48858847   -0.85212742   +4.29543262
 H   +2.98956134   +1.50216357   +3.43958838
 H   +4.68924119   +1.62477609   +2.98038493
 H   +4.44862286   +0.03047722   +1.21269333
 H   +2.36771499   -0.65493788   +0.40001762
 H   -1.02210281   +0.20414648   -0.29435119
 H   +0.64936108   +0.77501964   -0.39957746
 H   +6.07632225   -1.07997422   +3.42004725
22
 * E =  +8.995 kcal/mol ; (10) 008_205_251_059
 C   +0.00000000   +0.00000000   +0.00000000
 O   +0.00000000   +0.00000000   +1.40966894
 C   +1.14245282   +0.00000000   +2.10766543
 C   +2.39884655   +0.19327943   +1.35750188
 C   +3.58602925   -0.24003481   +1.77980451
 C   +3.90289535   -1.01969647   +3.00824089
 C   +4.63265912   -0.18659562   +4.03581175
 C   +3.94031384   +1.04005908   +4.53993360
 O   +1.08626023   -0.13264201   +3.29977578
 H   +3.63850948   +1.69000635   +3.72141056
 H   +0.66684739   -0.75987649   -0.39963831
 H   +4.58336140   +1.60562965   +5.20954322
 H   +3.03190055   +0.77008043   +5.07817892
 H   +5.73390853   +0.23755830   +3.40403352
 H   +5.07211569   -0.79833192   +4.81876905
 H   +4.54140496   -1.85594558   +2.72131918
 H   +2.99496104   -1.42190514   +3.45295251
 H   +4.43993287   -0.00143320   +1.15689346
 H   +2.34837272   +0.72735954   +0.42138950
 H   -1.01731629   -0.22675009   -0.29447742
 H   +0.27223545   +0.97595380   -0.39645302
 H   +6.48404755   +0.52800355   +2.92600706
22
 * E =  +9.074 kcal/mol ; (11) 005_189_167_173
 C   +0.00000000   +0.00000000   +0.00000000
 O   +0.00000000   +0.00000000   +1.40832449
 C   +1.13837829   +0.00000000   +2.11499833
 C   +2.41091083   +0.11249856   +1.38550736
 C   +3.59405073   -0.06328467   +1.97733959
 C   +3.86740730   -0.40535058   +3.40055893
 C   +5.28675406   -0.83048680   +3.63685357
 C   +5.68834897   -1.04532476   +5.06203431
 O   +1.06734450   -0.08358826   +3.31196407
 H   +5.46890670   -0.16759216   +5.66679959
 H   +0.57734540   -0.83018106   -0.40015670
 H   +6.75013193   -1.26044851   +5.14888849
 H   +5.14409100   -1.88478044   +5.49762907
 H   +6.01915133   +0.19729767   +3.21195224
 H   +5.62198600   -1.61582930   +2.96265911
 H   +3.16928763   -1.17413238   +3.73746472
 H   +3.62138985   +0.45918373   +4.02094717
 H   +4.46945314   +0.06181729   +1.35065216
 H   +2.39546027   +0.35763898   +0.33663790
 H   -1.03620067   -0.11571806   -0.29311551
 H   +0.37594471   +0.93953960   -0.39949909
 H   +6.50075005   +0.95278497   +2.93084170
22
 * E =  +9.264 kcal/mol ; (12) 353_162_212_059
 C   +0.00000000   +0.00000000   +0.00000000
 O   +0.00000000   +0.00000000   +1.40871839
 C   +1.13950617   +0.00000000   +2.11357180
 C   +2.40491594   -0.15159089   +1.37458019
 C   +3.59436385   +0.16443912   +1.88822613
 C   +3.90659605   +0.72251741   +3.23310774
 C   +5.11330628   +1.61928939   +3.21964182
 C   +5.05555200   +2.81679312   +2.32216484
 O   +1.07198725   +0.11041375   +3.30787197
 H   +4.81119823   +2.53619804   +1.29889518
 H   +0.32140011   -0.96012541   -0.39837605
 H   +6.00201833   +3.35088351   +2.30799872
 H   +4.28588221   +3.51363022   +2.65871381
 H   +6.09904378   +0.85604505   +2.73383478
 H   +5.49020149   +1.83597850   +4.21455876
 H   +4.07705492   -0.11737190   +3.91005845
 H   +3.03937107   +1.24114253   +3.64044291
 H   +4.45647161   -0.01206108   +1.25445567
 H   +2.37006228   -0.54912275   +0.37314835
 H   -1.02782336   +0.17441679   -0.29373111
 H   +0.62524415   +0.79444558   -0.40027467
 H   +6.75764036   +0.30721523   +2.35946666
22
 * E =  +9.284 kcal/mol ; (13) 008_201_269_295
 C   +0.00000000   +0.00000000   +0.00000000
 O   +0.00000000   +0.00000000   +1.40901317
 C   +1.14094416   +0.00000000   +2.10972219
 C   +2.40344861   +0.17578113   +1.36995934
 C   +3.58961259   -0.19395871   +1.85717222
 C   +3.87810566   -0.84715702   +3.16673884
 C   +4.14437855   +0.19409676   +4.22797746
 C   +5.36611288   +1.04662106   +4.06744702
 O   +1.08093841   -0.12255840   +3.30321921
 H   +6.25317693   +0.43849949   +3.89611161
 H   +0.64662678   -0.77727871   -0.39979535
 H   +5.53984318   +1.65056358   +4.95454311
 H   +5.26624289   +1.73229661   +3.22462163
 H   +4.36741632   -0.52168041   +5.31926730
 H   +3.24286363   +0.73556363   +4.49628961
 H   +4.75569668   -1.48410591   +3.05663263
 H   +3.03828946   -1.45967869   +3.47961141
 H   +4.45045451   +0.02069788   +1.23601611
 H   +2.36664478   +0.63855050   +0.39655287
 H   -1.02269721   -0.20107675   -0.29440094
 H   +0.29666610   +0.96855521   -0.39729029
 H   +4.57404674   -1.04856522   +6.06673937
