22
 * E =  +0.000 kcal/mol ; (1) 179_173_085_179_298
 C   +0.00000000   +0.00000000   +0.00000000
 O   +0.00000000   +0.00000000   +1.41471912
 C   +1.20520917   +0.00000000   +1.98571876
 C   +1.09131070   +0.01299497   +3.44751983
 C   +2.12404687   -0.12605313   +4.27883922
 C   +3.55953641   -0.30524332   +3.92425684
 C   +4.25681503   +1.03360078   +3.69233679
 C   +5.70662387   +0.86448354   +3.37064506
 O   +2.22614141   -0.00020692   +1.34306749
 H   +6.26667842   +0.26594978   +4.47207210
 H   +0.49844357   -0.88665870   -0.37956103
 H   +6.28720159   +1.77654626   +3.29359969
 H   +5.93224511   +0.15461707   +2.58197319
 H   +4.14303052   +1.67214026   +4.56893502
 H   +3.75322540   +1.53908839   +2.86576585
 H   +3.65206556   -0.90073796   +3.02038709
 H   +4.06292773   -0.83164075   +4.73364374
 H   +1.89520430   -0.08351080   +5.33649883
 H   +0.09241925   +0.13632033   +3.83512032
 H   -1.04080844   +0.00816088   -0.29647381
 H   +0.51289765   +0.87863723   -0.37914902
 H   +6.59082367   -0.12055601   +5.22753184
22
 * E =  +0.254 kcal/mol ; (2) 179_173_087_179_180
 C   +0.00000000   +0.00000000   +0.00000000
 O   +0.00000000   +0.00000000   +1.41475112
 C   +1.20462311   +0.00000000   +1.98678995
 C   +1.08714192   +0.01640628   +3.44855105
 C   +2.11607435   -0.11871757   +4.28516364
 C   +3.55448445   -0.29295447   +3.93982637
 C   +4.25155851   +1.06109402   +3.75674397
 C   +5.70418212   +0.89858623   +3.44352373
 O   +2.22635561   -0.00273312   +1.34575344
 H   +6.21596844   +2.16511573   +3.31039310
 H   +0.49296571   -0.88970703   -0.37963789
 H   +5.92851319   +0.46123166   +2.47688906
 H   +6.32089630   +0.49364159   +4.23919532
 H   +4.12902092   +1.65865847   +4.66013086
 H   +3.75201989   +1.58934182   +2.94728548
 H   +3.65747711   -0.86134007   +3.02089167
 H   +4.04640540   -0.84301159   +4.74070750
 H   +1.88259612   -0.07084713   +5.34168638
 H   +0.08686857   +0.14061311   +3.83233823
 H   -1.04075466   +0.01427114   -0.29639671
 H   +0.51815718   +0.87556123   -0.37903333
 H   +6.52367819   +3.01261989   +3.23368091
22
 * E =  +0.436 kcal/mol ; (3) 180_186_256_068_179
 C   +0.00000000   +0.00000000   +0.00000000
 O   +0.00000000   +0.00000000   +1.41487353
 C   +1.20657851   +0.00000000   +1.98429334
 C   +1.08428426   -0.00128696   +3.44742361
 C   +2.10274000   +0.11035245   +4.29957445
 C   +3.55372390   +0.25006705   +4.00348913
 C   +4.31202146   -1.06123965   +4.25640945
 C   +3.93619516   -2.14177692   +3.29307392
 O   +2.22425806   -0.00714444   +1.33780511
 H   +4.71537858   -3.23082863   +3.62215683
 H   +0.50877965   -0.88087324   -0.37934304
 H   +4.20588415   -1.96129433   +2.25910113
 H   +2.93364220   -2.54257614   +3.39424819
 H   +4.13376878   -1.39356203   +5.27986644
 H   +5.37781464   -0.85216758   +4.17723757
 H   +3.96197774   +1.01288351   +4.66721754
 H   +3.71021860   +0.56688356   +2.97871413
 H   +1.84803453   +0.07674401   +5.35279214
 H   +0.07660576   -0.09481306   +3.82095443
 H   -1.04089311   -0.00350563   -0.29630232
 H   +0.50241645   +0.88450171   -0.37929567
 H   +5.24228492   -3.92073636   +3.86680186
22
 * E =  +0.442 kcal/mol ; (4) 180_179_120_177_180
 C   +0.00000000   +0.00000000   +0.00000000
 O   +0.00000000   +0.00000000   +1.41462132
 C   +1.20628315   +0.00000000   +1.98555886
 C   +1.07455166   +0.00604159   +3.44854315
 C   +2.08380947   -0.00840029   +4.31832940
 C   +3.54667284   -0.02344481   +4.05602626
 C   +4.22977754   +1.20349901   +4.66686370
 C   +5.71271096   +1.17001653   +4.47598177
 O   +2.22372999   -0.00111628   +1.33930360
 H   +6.20399016   +2.31209599   +5.06056747
 H   +0.50615302   -0.88242831   -0.37927539
 H   +6.05885027   +1.27281423   +3.45348522
 H   +6.24282261   +0.39468811   +5.01900860
 H   +3.99486703   +1.25922324   +5.73050451
 H   +3.81760754   +2.10051600   +4.20663353
 H   +3.74812089   -0.07868556   +2.99312016
 H   +3.96320563   -0.91883121   +4.52252144
 H   +1.80789823   +0.00660921   +5.36708640
 H   +0.05806318   +0.02352175   +3.80922422
 H   -1.04086049   -0.00029142   -0.29642442
 H   +0.50556611   +0.88280603   -0.37920653
 H   +6.49213409   +3.07211939   +5.45630521
22
 * E =  +0.485 kcal/mol ; (5) 181_188_249_064_281
 C   +0.00000000   +0.00000000   +0.00000000
 O   +0.00000000   +0.00000000   +1.41444362
 C   +1.20497636   +0.00000000   +1.98681571
 C   +1.07612434   -0.02539942   +3.44883155
 C   +2.07846419   +0.11856940   +4.31402487
 C   +3.51991737   +0.36059760   +4.03902040
 C   +4.38638821   -0.84322237   +4.40356987
 C   +4.08906386   -2.05907977   +3.58109785
 O   +2.22368797   +0.00555830   +1.34063717
 H   +2.95041279   -2.62733128   +4.08932141
 H   +0.51402640   -0.87797652   -0.37910534
 H   +4.78319784   -2.88353980   +3.69859640
 H   +3.81689772   -1.87193661   +2.54783443
 H   +4.28171831   -1.07708238   +5.46518390
 H   +5.43179156   -0.55865611   +4.26462190
 H   +3.83721386   +1.21014689   +4.64511661
 H   +3.67259321   +0.61362176   +2.99619898
 H   +1.81576588   +0.04411119   +5.36319671
 H   +0.07248415   -0.18134405   +3.81184707
 H   -1.04087637   -0.00991365   -0.29629519
 H   +0.49692783   +0.88735526   -0.38000453
 H   +2.22654059   -3.00882224   +4.48034434
22
 * E =  +0.498 kcal/mol ; (6) 181_187_275_302_302
 C   +0.00000000   +0.00000000   +0.00000000
 O   +0.00000000   +0.00000000   +1.41464351
 C   +1.20483764   +0.00000000   +1.98660720
 C   +1.08758033   -0.01486607   +3.44837649
 C   +2.11714312   +0.11305295   +4.28565804
 C   +3.55766006   +0.28753382   +3.94116334
 C   +4.26258895   -1.04365771   +3.67966117
 C   +4.20848162   -1.99352881   +4.83399749
 O   +2.22636686   +0.00340457   +1.34526812
 H   +4.79251666   -1.34088385   +5.89180086
 H   +0.51832628   -0.87547655   -0.37906616
 H   +4.82870998   -2.87834121   +4.74892454
 H   +3.22051839   -2.21789457   +5.22283717
 H   +5.30038901   -0.84053487   +3.41851890
 H   +3.80737457   -1.49912751   +2.79788706
 H   +4.05410760   +0.79414188   +4.76731026
 H   +3.65399758   +0.90414905   +3.05326011
 H   +1.87728572   +0.07665025   +5.34095486
 H   +0.08575675   -0.12756809   +3.83186590
 H   -1.04072286   -0.01435444   -0.29651375
 H   +0.49305470   +0.88966224   -0.37963669
 H   +5.19085262   -0.87545641   +6.56371112
22
 * E =  +0.684 kcal/mol ; (7) 180_188_273_185_299
 C   +0.00000000   +0.00000000   +0.00000000
 O   +0.00000000   +0.00000000   +1.41478305
 C   +1.20641446   +0.00000000   +1.98442618
 C   +1.09277608   -0.00729594   +3.44676009
 C   +2.12347152   +0.13695058   +4.27928097
 C   +3.56106665   +0.31840103   +3.93313546
 C   +4.26929578   -1.02149158   +3.74621052
 C   +5.73899999   -0.86154694   +3.51981759
 O   +2.22636967   -0.00391225   +1.34177958
 H   +5.87507675   -0.12883925   +2.36482809
 H   +0.51037795   -0.88008320   -0.37919220
 H   +6.28107941   -1.76668251   +3.27136585
 H   +6.26553630   -0.24440782   +4.24100230
 H   +3.81393774   -1.53779343   +2.90293644
 H   +4.10200728   -1.65080587   +4.62551218
 H   +4.04811742   +0.86995460   +4.73685425
 H   +3.66412857   +0.89120974   +3.01639643
 H   +1.89099424   +0.09620390   +5.33642003
 H   +0.09401522   -0.13183324   +3.83447875
 H   -1.04083102   -0.00499982   -0.29656236
 H   +0.50144512   +0.88500177   -0.37945456
 H   +5.93458495   +0.34766965   +1.59690259
22
 * E =  +0.692 kcal/mol ; (8) 179_173_088_066_292
 C   +0.00000000   +0.00000000   +0.00000000
 O   +0.00000000   +0.00000000   +1.41434966
 C   +1.20526324   +0.00000000   +1.98625991
 C   +1.08867195   +0.01728667   +3.44737940
 C   +2.11716364   -0.11253106   +4.28521257
 C   +3.55341379   -0.30855564   +3.93554896
 C   +4.29654923   +1.01257137   +3.74308189
 C   +4.41996157   +1.83984797   +4.98373769
 O   +2.22604330   -0.00201043   +1.34310835
 H   +3.16973277   +2.29185641   +5.33963629
 H   +0.49724620   -0.88721571   -0.37999972
 H   +4.93926341   +2.78420829   +4.86627418
 H   +4.72733508   +1.30847598   +5.87952820
 H   +3.80856557   +1.57805510   +2.95067009
 H   +5.29918009   +0.78149181   +3.37386115
 H   +3.63499741   -0.88184002   +3.01822865
 H   +4.03451301   -0.87218352   +4.73484061
 H   +1.88143440   -0.05560139   +5.34014917
 H   +0.08939395   +0.14846666   +3.83119210
 H   -1.04082625   +0.00950667   -0.29654397
 H   +0.51388556   +0.87799413   -0.37939296
 H   +2.35084510   +2.60533320   +5.56384116
22
 * E =  +0.695 kcal/mol ; (9) 180_184_135_176_064
 C   +0.00000000   +0.00000000   +0.00000000
 O   +0.00000000   +0.00000000   +1.41452046
 C   +1.20702897   +0.00000000   +1.98494124
 C   +1.07896399   -0.00669389   +3.44764394
 C   +2.09072226   +0.07638184   +4.31032296
 C   +3.54699864   +0.19967323   +4.03945099
 C   +4.19746606   +1.25419001   +4.92456503
 C   +5.67786063   +1.33454806   +4.72746750
 O   +2.22466045   +0.00029203   +1.33972612
 H   +5.86711101   +1.73671833   +3.43037194
 H   +0.51313155   -0.87849727   -0.37914204
 H   +6.20977570   +0.38899502   +4.75190902
 H   +6.18888217   +2.11653091   +5.27700411
 H   +3.98108833   +1.03286931   +5.97471208
 H   +3.74736153   +2.22707336   +4.72508577
 H   +3.72939250   +0.40671393   +2.99096609
 H   +4.00980071   -0.76782125   +4.25414002
 H   +1.82158422   +0.05577035   +5.36112829
 H   +0.06719521   -0.08132692   +3.81411247
 H   -1.04081360   -0.00809537   -0.29662135
 H   +0.49883349   +0.88649747   -0.37954656
 H   +5.95037901   +2.01909246   +2.57199982
22
 * E =  +0.710 kcal/mol ; (10) 180_173_223_065_065
 C   +0.00000000   +0.00000000   +0.00000000
 O   +0.00000000   +0.00000000   +1.41467460
 C   +1.20747232   +0.00000000   +1.98402315
 C   +1.08367586   +0.00452326   +3.44702983
 C   +2.09723497   -0.12593294   +4.30176969
 C   +3.54651013   -0.30812679   +4.01879781
 C   +4.17109601   -1.35916260   +4.92781154
 C   +3.62783932   -2.73348007   +4.69134747
 O   +2.22490831   +0.00329506   +1.33856240
 H   +4.00807202   -3.07244077   +3.41974384
 H   +0.49984001   -0.88590961   -0.37948677
 H   +2.54720317   -2.81342754   +4.63206141
 H   +4.07549984   -3.52932987   +5.27536424
 H   +4.01057982   -1.07702120   +5.97359002
 H   +5.25068882   -1.36200484   +4.78224255
 H   +4.04117430   +0.64966111   +4.19549148
 H   +3.70616641   -0.55273528   +2.97425449
 H   +1.83802515   -0.09891677   +5.35536453
 H   +0.07770200   +0.11847074   +3.81949227
 H   -1.04087534   +0.00666021   -0.29649506
 H   +0.51170751   +0.87926622   -0.37924919
 H   +4.29657578   -3.26674346   +2.58055616
22
 * E =  +0.891 kcal/mol ; (11) 180_187_275_300_183
 C   +0.00000000   +0.00000000   +0.00000000
 O   +0.00000000   +0.00000000   +1.41502650
 C   +1.20659502   +0.00000000   +1.98315103
 C   +1.09777693   -0.00594253   +3.44557386
 C   +2.13511052   +0.12456773   +4.27268557
 C   +3.57273585   +0.28821071   +3.91087630
 C   +4.26988257   -1.05741408   +3.67178986
 C   +4.24507035   -1.95931222   +4.86567976
 O   +2.22583208   -0.00224213   +1.33833675
 H   +4.96501286   -3.07294915   +4.51895162
 H   +0.51488198   -0.87742281   -0.37907739
 H   +3.28271890   -2.38943424   +5.12155737
 H   +4.78936940   -1.60909310   +5.73710132
 H   +5.30089313   -0.85441309   +3.38492303
 H   +3.79204426   -1.53698089   +2.82014172
 H   +4.07894173   +0.81471019   +4.71882605
 H   +3.66468622   +0.87964867   +3.00477067
 H   +1.90661990   +0.09342366   +5.33059007
 H   +0.09878820   -0.11416755   +3.83758645
 H   -1.04082279   -0.01033608   -0.29635703
 H   +0.49649450   +0.88781941   -0.37934069
 H   +5.45240121   -3.79060607   +4.25838224
22
 * E =  +1.455 kcal/mol ; (12) 181_351_108_290_293
 C   +0.00000000   +0.00000000   +0.00000000
 O   +0.00000000   +0.00000000   +1.41617258
 C   +1.19976236   +0.00000000   +1.99160285
 C   +1.17380763   -0.01547014   +3.46168282
 C   +0.13729893   +0.14093887   +4.28526023
 C   -1.30572445   +0.37537425   +4.00015674
 C   -2.14651672   -0.86431985   +4.30677744
 C   -1.90323159   -1.98596174   +3.34825797
 O   +2.22419675   -0.00750651   +1.35810461
 H   -2.38049145   -1.54136691   +2.14217294
 H   +0.52634663   -0.87090563   -0.37768395
 H   -2.49526645   -2.88026801   +3.50446115
 H   -0.86517724   -2.19769231   +3.11652522
 H   -3.20066436   -0.58846779   +4.28804013
 H   -1.94269005   -1.20047031   +5.32793110
 H   -1.46632053   +0.67609970   +2.97111455
 H   -1.64113725   +1.18793165   +4.64481298
 H   +0.37481348   +0.08005670   +5.34179075
 H   +2.15844886   -0.16293115   +3.87732115
 H   -1.04165073   -0.02753508   -0.29251263
 H   +0.48446965   +0.89466193   -0.37870720
 H   -2.73883000   -1.20880330   +1.37903023
22
 * E =  +1.809 kcal/mol ; (13) 180_010_269_183_063
 C   +0.00000000   +0.00000000   +0.00000000
 O   +0.00000000   +0.00000000   +1.41665624
 C   +1.20973208   +0.00000000   +1.97980486
 C   +1.20359201   +0.00497234   +3.44836289
 C   +0.17456538   -0.17391850   +4.27635217
 C   -1.26232909   -0.41647252   +3.96499060
 C   -2.04600622   +0.88994346   +3.86628574
 C   -3.50243289   +0.65961981   +3.61883102
 O   +2.22302923   +0.01396363   +1.32915982
 H   -3.96125811   -0.02708642   +4.71349680
 H   +0.50197062   +0.88495617   -0.37830327
 H   -3.74186960   -0.01950936   +2.80715420
 H   -4.13322377   +1.54093865   +3.62796776
 H   -1.61989195   +1.48562044   +3.05584952
 H   -1.91422432   +1.47344426   +4.77804709
 H   -1.69320867   -1.02348254   +4.76028993
 H   -1.37073496   -0.96368726   +3.03410224
 H   +0.41253081   -0.11577303   +5.33168226
 H   +2.18976671   +0.16558293   +3.85479468
 H   +0.50925918   -0.88012150   -0.37969014
 H   -1.04118573   -0.00379934   -0.29607536
 H   -4.21773712   -0.47185513   +5.46321436
22
 * E =  +2.048 kcal/mol ; (14) 180_011_269_183_180
 C   +0.00000000   +0.00000000   +0.00000000
 O   +0.00000000   +0.00000000   +1.41677782
 C   +1.20917195   +0.00000000   +1.98055896
 C   +1.20052392   -0.00022356   +3.44922001
 C   +0.17306975   -0.20218641   +4.27377607
 C   -1.25905468   -0.46671840   +3.95683714
 C   -2.06231146   +0.83690914   +3.87773718
 C   -3.51472449   +0.58415593   +3.62807162
 O   +2.22330541   +0.01757520   +1.33144708
 H   -4.11903248   +1.81484587   +3.57053928
 H   +0.50979821   -0.87990156   -0.37950271
 H   -4.06004130   +0.10621675   +4.43505371
 H   -3.76090595   +0.16737025   +2.65732492
 H   -1.64293103   +1.44525624   +3.07849373
 H   -1.93680412   +1.39649557   +4.80458820
 H   -1.67823218   -1.09380167   +4.74272361
 H   -1.35708072   -1.00036032   +3.01755241
 H   +0.40667653   -0.14473942   +5.33015727
 H   +2.18298805   +0.17439952   +3.85887147
 H   -1.04114007   -0.00414685   -0.29611972
 H   +0.50135749   +0.88532035   -0.37813191
 H   -4.48770910   +2.64066160   +3.53975169
22
 * E =  +2.574 kcal/mol ; (15) 181_352_088_060_176
 C   +0.00000000   +0.00000000   +0.00000000
 O   +0.00000000   +0.00000000   +1.41689633
 C   +1.20966490   +0.00000000   +1.97917510
 C   +1.20490380   -0.01893026   +3.44776252
 C   +0.17213220   +0.11638179   +4.27948035
 C   -1.27305871   +0.32164787   +3.96977672
 C   -2.02349490   -1.00142243   +3.77292364
 C   -1.98064057   -1.89369344   +4.97369148
 O   +2.22326857   -0.00210070   +1.32879819
 H   -2.75494240   -2.98169082   +4.66465554
 H   +0.50679212   -0.88236556   -0.37781146
 H   -2.47573705   -1.51645948   +5.86278985
 H   -1.02465792   -2.35627016   +5.19319969
 H   -1.59560886   -1.50970556   +2.91102914
 H   -3.05887360   -0.76840655   +3.52625494
 H   -1.38894688   +0.92139504   +3.07320651
 H   -1.72774958   +0.86625647   +4.79634559
 H   +0.41763516   +0.05637919   +5.33260492
 H   +2.19618331   -0.15340898   +3.85136261
 H   -1.04121829   -0.00191457   -0.29580236
 H   +0.50451465   +0.88286027   -0.37959968
 H   -3.27973309   -3.67985401   +4.42542499
22
 * E =  +8.549 kcal/mol ; (16) 008_202_268_182_062
 C   +0.00000000   +0.00000000   +0.00000000
 O   +0.00000000   +0.00000000   +1.40923364
 C   +1.14227989   +0.00000000   +2.10795486
 C   +2.40197909   +0.18695168   +1.36508897
 C   +3.58748250   -0.20430500   +1.83498199
 C   +3.87613039   -0.89011522   +3.12284067
 C   +4.18967233   +0.11343876   +4.23083893
 C   +4.52884003   -0.56288264   +5.51985350
 O   +1.08465334   -0.13243658   +3.30060319
 H   +5.65842365   -1.30211495   +5.26755397
 H   +0.65586047   -0.76957102   -0.39952870
 H   +3.82554296   -1.31900514   +5.85207557
 H   +4.86006679   +0.08429809   +6.32368877
 H   +3.31211098   +0.74832789   +4.36591655
 H   +5.01032976   +0.76435153   +3.92700863
 H   +4.73275592   -1.54966076   +2.98871168
 H   +3.02566492   -1.48991530   +3.43410439
 H   +4.44672366   +0.01610518   +1.21303393
 H   +2.36008580   +0.67296732   +0.40322382
 H   -1.02033569   -0.21257628   -0.29460823
 H   +0.28595824   +0.97184866   -0.39703899
 H   +6.40943709   -1.76459469   +5.05018479
22
 * E =  +8.908 kcal/mol ; (17) 352_160_090_179_181
 C   +0.00000000   +0.00000000   +0.00000000
 O   +0.00000000   +0.00000000   +1.40893252
 C   +1.13983335   +0.00000000   +2.11175804
 C   +2.40384920   -0.17391752   +1.37379843
 C   +3.59110460   +0.17820838   +1.87072676
 C   +3.88136039   +0.79360542   +3.19370478
 C   +4.14501066   -0.28323249   +4.25451593
 C   +4.47051488   +0.31909835   +5.58341513
 O   +1.07583695   +0.12259201   +3.30519552
 H   +4.70581189   -0.73049011   +6.43544526
 H   +0.30540293   -0.96563755   -0.39767484
 H   +3.65289484   +0.83245158   +6.07708643
 H   +5.40606574   +0.86563976   +5.64359128
 H   +4.96234624   -0.92562901   +3.92613047
 H   +3.25151430   -0.89863983   +4.33109892
 H   +3.04579111   +1.40342965   +3.52299254
 H   +4.76023692   +1.43059468   +3.10240785
 H   +4.45175676   -0.02864215   +1.24603990
 H   +2.36647768   -0.61674660   +0.39136161
 H   -1.02458152   +0.19179378   -0.29408500
 H   +0.63922688   +0.78334596   -0.39990043
 H   +4.86179741   -1.44360046   +6.97009629
22
 * E =  +9.139 kcal/mol ; (18) 352_158_091_057_056
 C   +0.00000000   +0.00000000   +0.00000000
 O   +0.00000000   +0.00000000   +1.40918961
 C   +1.14171904   +0.00000000   +2.10918524
 C   +2.40300916   -0.17531842   +1.36635198
 C   +3.58805428   +0.21255219   +1.84113113
 C   +3.87640087   +0.88897124   +3.13609360
 C   +4.17327567   -0.10746422   +4.25812850
 C   +5.31468630   -1.02974394   +3.96759268
 O   +1.08206105   +0.12642663   +3.30228337
 H   +6.39756370   -0.22844658   +3.69891532
 H   +0.29535787   -0.96887755   -0.39739175
 H   +5.23755283   -1.61685335   +3.05819681
 H   +5.67308850   -1.61651432   +4.80536626
 H   +3.26369971   -0.68201629   +4.44244963
 H   +4.37586894   +0.45284253   +5.16971505
 H   +3.03010554   +1.49770511   +3.43822626
 H   +4.74114978   +1.53776639   +3.00183408
 H   +4.44412295   +0.00868374   +1.20962525
 H   +2.36311032   -0.64452900   +0.39610465
 H   -1.02248552   +0.20243671   -0.29429862
 H   +0.64770626   +0.77632172   -0.39977244
 H   +7.08952129   +0.33662531   +3.52845792
22
 * E =  +9.226 kcal/mol ; (19) 010_204_251_067_180
 C   +0.00000000   +0.00000000   +0.00000000
 O   +0.00000000   +0.00000000   +1.40938127
 C   +1.14207545   +0.00000000   +2.10943728
 C   +2.39549880   +0.22213251   +1.36236551
 C   +3.59390298   -0.18395270   +1.78219512
 C   +3.94319091   -0.94197021   +3.01177724
 C   +4.68239790   -0.05897206   +4.02744594
 C   +3.82032388   +1.02312321   +4.59498932
 O   +1.08436992   -0.15312881   +3.29867628
 H   +4.62326543   +1.71837758   +5.47774517
 H   +0.67171791   -0.75546150   -0.39992942
 H   +3.00276305   +0.69141310   +5.22322171
 H   +3.51378125   +1.79953455   +3.90279471
 H   +5.56442546   +0.37439234   +3.55363156
 H   +5.04399406   -0.70156678   +4.82866981
 H   +4.60761778   -1.75842167   +2.72537235
 H   +3.05803432   -1.36407672   +3.47370018
 H   +4.43508084   +0.07364131   +1.14820722
 H   +2.33229507   +0.75301789   +0.42526599
 H   -1.01576302   -0.23377946   -0.29453133
 H   +0.26523177   +0.97765743   -0.39719313
 H   +5.17926445   +2.14626488   +6.04301325
22
 * E =  +9.355 kcal/mol ; (20) 009_201_269_187_300
 C   +0.00000000   +0.00000000   +0.00000000
 O   +0.00000000   +0.00000000   +1.40886994
 C   +1.14185966   +0.00000000   +2.10928838
 C   +2.40092592   +0.20386707   +1.36965774
 C   +3.59238434   -0.16045094   +1.84578056
 C   +3.89681853   -0.83210387   +3.13824176
 C   +4.16602858   +0.18476099   +4.24593966
 C   +4.62821279   -0.46464913   +5.51156373
 O   +1.08410780   -0.14178181   +3.30018815
 H   +3.62375842   -1.31802350   +5.90273478
 H   +0.65639133   -0.76901877   -0.39987883
 H   +4.71165379   +0.18685095   +6.37367460
 H   +5.47139833   -1.14176401   +5.41690885
 H   +3.25080965   +0.74666805   +4.42079369
 H   +4.92015552   +0.90327983   +3.91024435
 H   +4.77827137   -1.45966175   +3.00638402
 H   +3.07013476   -1.46439066   +3.44855067
 H   +4.44763188   +0.07550353   +1.22382722
 H   +2.35431680   +0.68403447   +0.40506435
 H   -1.02008732   -0.21378940   -0.29472324
 H   +0.28477432   +0.97203250   -0.39763561
 H   +2.94701016   -1.87015189   +6.14175938
