22
 * E =  +0.000 kcal/mol ; (1) 180_174_236_183
 C   +0.00000000   +0.00000000   +0.00000000
 O   +0.00000000   +0.00000000   +1.41602052
 C   +1.20051678   +0.00000000   +1.98275448
 C   +1.10872046   +0.00368854   +3.43946450
 C   +2.03519722   -0.09473392   +4.37370911
 C   +3.50756581   -0.25781929   +4.18850012
 C   +4.03504335   -1.48664133   +4.91618003
 C   +5.53949903   -1.61769986   +4.79525496
 O   +2.22702412   -0.00030790   +1.34990581
 H   +5.84237037   -1.69461099   +3.75297023
 H   +0.50064693   -0.88570658   -0.37860366
 H   +5.90213296   -2.50236531   +5.31284936
 H   +6.04401699   -0.75269872   +5.22226857
 H   +3.55263713   -2.37523434   +4.51012636
 H   +3.75239872   -1.43677968   +5.96864355
 H   +3.99407628   +0.63036843   +4.59959676
 H   +3.75038015   -0.29952965   +3.13174759
 H   +1.69300629   -0.06815811   +5.40475630
 H   -0.24639123   +0.12365382   +3.95423011
 H   -1.04115471   +0.00520755   -0.29447291
 H   +0.50979546   +0.88059790   -0.37827054
 H   -1.00944728   +0.18994449   +4.32575677
22
 * E =  +0.600 kcal/mol ; (2) 180_194_270_300
 C   +0.00000000   +0.00000000   +0.00000000
 O   +0.00000000   +0.00000000   +1.41624228
 C   +1.19997974   +0.00000000   +1.98263639
 C   +1.12265645   -0.00977576   +3.43841174
 C   +2.05346074   +0.23962896   +4.34023946
 C   +3.47834436   +0.60979023   +4.06205407
 C   +4.38019269   -0.61766844   +3.96113758
 C   +4.40677826   -1.45908936   +5.22113967
 O   +2.22941933   -0.00289470   +1.35331320
 H   +4.72387738   -0.87136875   +6.08180185
 H   +0.51713317   -0.87636182   -0.37815843
 H   +5.09636827   -2.29353483   +5.12036459
 H   +3.42539975   -1.87318877   +5.44499343
 H   +5.38760181   -0.27635857   +3.72564362
 H   +4.04690506   -1.21343659   +3.11306492
 H   +3.83127605   +1.25552635   +4.86625413
 H   +3.53515113   +1.16336086   +3.12961092
 H   +1.76238019   +0.15223508   +5.38151452
 H   -0.19016027   -0.32336677   +3.98105091
 H   -1.04104741   -0.01367039   -0.29452700
 H   +0.49299807   +0.88993483   -0.37868247
 H   -0.92983206   -0.49915195   +4.36327915
22
 * E =  +1.837 kcal/mol ; (3) 181_332_118_177
 C   +0.00000000   +0.00000000   +0.00000000
 O   +0.00000000   +0.00000000   +1.41835522
 C   +1.21151523   +0.00000000   +1.98018624
 C   +1.16442992   -0.02086943   +3.43766092
 C   +0.31835018   +0.39545845   +4.35740893
 C   -0.99483466   +1.07815701   +4.15409365
 C   -2.15031563   +0.25162306   +4.70253243
 C   -3.47795492   +0.96930143   +4.57105286
 O   +2.22922024   -0.01064629   +1.34013890
 H   -3.47149192   +1.91093171   +5.11728252
 H   +0.50806341   -0.88200300   -0.37683571
 H   -4.29374765   +0.36560509   +4.96085063
 H   -3.69998264   +1.19369456   +3.52947754
 H   -1.96171649   +0.01370980   +5.75002925
 H   -2.18634512   -0.69890436   +4.17193603
 H   -1.15546352   +1.28819329   +3.10127112
 H   -0.96265516   +2.03436806   +4.68089027
 H   +0.60042962   +0.22702401   +5.39296951
 H   +2.38896931   -0.58614456   +3.96486880
 H   -1.04148151   -0.00411805   -0.29436191
 H   +0.50266387   +0.88401183   -0.37948227
 H   +3.08928442   -0.90899321   +4.32166814
22
 * E =  +1.886 kcal/mol ; (4) 181_334_235_183
 C   +0.00000000   +0.00000000   +0.00000000
 O   +0.00000000   +0.00000000   +1.41837801
 C   +1.21164008   +0.00000000   +1.97932061
 C   +1.16887257   -0.02374910   +3.43679525
 C   +0.31493220   +0.36085462   +4.36332711
 C   -1.01326448   +1.01904475   +4.17909433
 C   -1.10657865   +2.33255426   +4.94253369
 C   -2.47531398   +2.96977067   +4.81785436
 O   +2.22883110   -0.00586759   +1.33810060
 H   -2.71718328   +3.17861419   +3.77746084
 H   +0.50943153   -0.88128156   -0.37663684
 H   -2.52580348   +3.90828083   +5.36417784
 H   -3.25048236   +2.31444181   +5.21118222
 H   -0.34368941   +3.01617525   +4.57118979
 H   -0.87588247   +2.15780833   +5.99406474
 H   -1.77934796   +0.33646501   +4.55483577
 H   -1.21825842   +1.17322362   +3.12438023
 H   +0.61559035   +0.20606150   +5.39614062
 H   +2.41413146   -0.54968588   +3.95801865
 H   -1.04150670   -0.00577763   -0.29423343
 H   +0.50147965   +0.88464673   -0.37956228
 H   +3.12614820   -0.84831856   +4.31226936
22
 * E =  +2.450 kcal/mol ; (5) 179_028_261_300
 C   +0.00000000   +0.00000000   +0.00000000
 O   +0.00000000   +0.00000000   +1.41848042
 C   +1.21263180   +0.00000000   +1.97932319
 C   +1.15891715   +0.02698025   +3.43623972
 C   +0.29480585   -0.38496292   +4.34151110
 C   -1.01826211   -1.06093997   +4.09194550
 C   -2.19332762   -0.09124331   +4.18167915
 C   -2.32899825   +0.58223957   +5.53261764
 O   +2.23019029   +0.00735883   +1.33911772
 H   -2.42126225   -0.15242983   +6.33146727
 H   +0.50004215   -0.88545281   -0.37958639
 H   -3.21077983   +1.21716317   +5.56593048
 H   -1.46837376   +1.20957103   +5.75543114
 H   -3.10471682   -0.64414276   +3.95614502
 H   -2.08008501   +0.65816067   +3.39948296
 H   -1.14341146   -1.84764018   +4.83712757
 H   -1.01399249   -1.52947671   +3.11304707
 H   +0.55710679   -0.21147587   +5.38003335
 H   +2.37970294   +0.59469419   +3.97613814
 H   -1.04141433   +0.00714112   -0.29451655
 H   +0.51105782   +0.88042201   -0.37649341
 H   +3.07649736   +0.91727060   +4.33795317
22
 * E =  +7.046 kcal/mol ; (6) 354_145_102_178
 C   +0.00000000   +0.00000000   +0.00000000
 O   +0.00000000   +0.00000000   +1.41329440
 C   +1.14580456   +0.00000000   +2.08966731
 C   +2.40207342   -0.12479199   +1.34053899
 C   +3.57236615   +0.43266180   +1.58850910
 C   +3.87076648   +1.39052912   +2.69471324
 C   +4.58335969   +0.69444138   +3.84862043
 C   +4.94641055   +1.66244374   +4.95568888
 O   +1.13281674   +0.09264705   +3.28731572
 H   +5.61407894   +2.44336064   +4.59521533
 H   +0.18092368   -0.99900077   -0.38605248
 H   +5.44527998   +1.15208749   +5.77582133
 H   +4.05727416   +2.14407808   +5.35741835
 H   +5.48218979   +0.19928471   +3.47935757
 H   +3.92653993   -0.08417808   +4.23223106
 H   +2.95151169   +1.83736769   +3.06359701
 H   +4.50355506   +2.18956859   +2.30596220
 H   +4.40411870   +0.15513428   +0.94943320
 H   +2.47231630   -1.02276216   +0.25480222
 H   -0.98966259   +0.32635866   -0.29454651
 H   +0.74266171   +0.68666305   -0.39773750
 H   +2.64497654   -1.55460455   -0.41475494
22
 * E =  +7.048 kcal/mol ; (7) 005_214_262_182
 C   +0.00000000   +0.00000000   +0.00000000
 O   +0.00000000   +0.00000000   +1.41319903
 C   +1.14478511   +0.00000000   +2.09055724
 C   +2.40391255   +0.11951460   +1.34553776
 C   +3.57578826   -0.42346927   +1.61884611
 C   +3.86829545   -1.34851199   +2.75468348
 C   +4.48573078   -0.59782624   +3.92936023
 C   +4.84297444   -1.52820830   +5.06999050
 O   +1.13002255   -0.09007623   +3.28861047
 H   +3.96103410   -2.04991555   +5.43601969
 H   +0.73845467   -0.69118071   -0.39777294
 H   +5.27249842   -0.97938728   +5.90442886
 H   +5.56789679   -2.27811844   +4.75734996
 H   +3.76820314   +0.14881491   +4.26448545
 H   +5.37458168   -0.06117445   +3.59578391
 H   +4.55709746   -2.12136798   +2.41177166
 H   +2.95497556   -1.83385888   +3.08861758
 H   +4.41163881   -0.15560223   +0.98120921
 H   +2.48125704   +0.99176952   +0.23739123
 H   -0.99162014   -0.32047798   -0.29434410
 H   +0.18689585   +0.99786443   -0.38613378
 H   +2.65967118   +1.50662620   -0.44276256
22
 * E =  +7.088 kcal/mol ; (8) 006_218_245_066
 C   +0.00000000   +0.00000000   +0.00000000
 O   +0.00000000   +0.00000000   +1.41333172
 C   +1.14506123   +0.00000000   +2.09210757
 C   +2.39889301   +0.13210265   +1.33963910
 C   +3.56573837   -0.45064766   +1.53685116
 C   +3.88654676   -1.47793822   +2.57253780
 C   +4.90130270   -0.95512047   +3.58569231
 C   +4.35796850   +0.17477539   +4.43601122
 O   +1.12912429   -0.09379839   +3.28903083
 H   +4.06074362   +1.02368759   +3.82386435
 H   +0.74593653   -0.68290286   -0.39805312
 H   +5.10264885   +0.51843005   +5.15003619
 H   +3.47506665   -0.14243286   +4.98525549
 H   +5.80203603   -0.63178844   +3.06139762
 H   +5.20114566   -1.78621996   +4.22279546
 H   +4.30267892   -2.34904450   +2.06464947
 H   +2.98094896   -1.78746751   +3.08694608
 H   +4.38626856   -0.15656293   +0.88933108
 H   +2.45646152   +1.07048240   +0.29380344
 H   -0.98806120   -0.33128167   -0.29452570
 H   +0.17574995   +0.99988913   -0.38612969
 H   +2.61889435   +1.62981966   -0.35872089
22
 * E =  +7.311 kcal/mol ; (9) 006_216_127_177
 C   +0.00000000   +0.00000000   +0.00000000
 O   +0.00000000   +0.00000000   +1.41304580
 C   +1.14416681   +0.00000000   +2.09396215
 C   +2.39956237   +0.12984023   +1.34384052
 C   +3.57341406   -0.43219727   +1.56099465
 C   +3.90197584   -1.43540049   +2.61543287
 C   +4.55676126   -2.68235785   +2.04010239
 C   +4.95784300   -3.66582544   +3.12045260
 O   +1.12501687   -0.09651760   +3.29052630
 H   +5.67075967   -3.21934278   +3.81124198
 H   +0.74647877   -0.68214751   -0.39840650
 H   +5.41876021   -4.55399722   +2.69551374
 H   +4.09368349   -3.98439512   +3.69988516
 H   +5.43382744   -2.39701799   +1.45754293
 H   +3.86789366   -3.15968415   +1.34326396
 H   +3.01201268   -1.68799218   +3.18477145
 H   +4.59310859   -0.96115574   +3.31641789
 H   +4.38825817   -0.15458179   +0.89904554
 H   +2.45765562   +1.03951460   +0.27158960
 H   -0.98780097   -0.33225064   -0.29443275
 H   +0.17461433   +0.99998908   -0.38638029
 H   +2.62442001   +1.57912839   -0.39548449
22
 * E =  +7.431 kcal/mol ; (10) 006_216_129_295
 C   +0.00000000   +0.00000000   +0.00000000
 O   +0.00000000   +0.00000000   +1.41306737
 C   +1.14475863   +0.00000000   +2.09305573
 C   +2.39902534   +0.13745888   +1.34250632
 C   +3.57433771   -0.42201628   +1.55779635
 C   +3.91198938   -1.42214677   +2.61396047
 C   +4.60857358   -2.65021041   +2.04307465
 C   +3.72196764   -3.45635282   +1.11566063
 O   +1.12716634   -0.10207059   +3.28918249
 H   +2.82361550   -3.79153301   +1.63111840
 H   +0.74630587   -0.68251708   -0.39813277
 H   +4.23829584   -4.33647709   +0.74057319
 H   +3.40678315   -2.86604050   +0.25705024
 H   +4.93675513   -3.27517075   +2.87221462
 H   +5.51286996   -2.34236870   +1.51589654
 H   +3.01789584   -1.70066282   +3.16484839
 H   +4.57493687   -0.92824970   +3.32666450
 H   +4.38864971   -0.13959548   +0.89648191
 H   +2.45381355   +1.05319854   +0.27513748
 H   -0.98782367   -0.33211797   -0.29449858
 H   +0.17497737   +0.99986052   -0.38656116
 H   +2.61813509   +1.59770355   -0.38862698
22
 * E =  +7.645 kcal/mol ; (11) 354_146_097_060
 C   +0.00000000   +0.00000000   +0.00000000
 O   +0.00000000   +0.00000000   +1.41321338
 C   +1.14438708   +0.00000000   +2.09150771
 C   +2.40311182   -0.13252258   +1.34759075
 C   +3.57922051   +0.40490851   +1.61435361
 C   +3.87841953   +1.34130291   +2.74192967
 C   +4.46676355   +0.61132505   +3.94678194
 C   +5.76657949   -0.10975691   +3.65140423
 O   +1.12887219   +0.09981031   +3.28862128
 H   +5.62676914   -0.90715447   +2.92396064
 H   +0.17794310   -0.99951043   -0.38608578
 H   +6.17456809   -0.56206171   +4.55181182
 H   +6.51772300   +0.57345355   +3.25649722
 H   +3.71825849   -0.08751494   +4.31541366
 H   +4.62608832   +1.34496219   +4.73611811
 H   +2.96961115   +1.84992311   +3.04969486
 H   +4.58654017   +2.09233957   +2.38977162
 H   +4.40688955   +0.13149613   +0.96926106
 H   +2.47148948   -1.00740109   +0.24261403
 H   -0.98867632   +0.32938022   -0.29447927
 H   +0.74467426   +0.68442790   -0.39783609
 H   +2.64457287   -1.52495041   -0.43810863
22
 * E =  +8.029 kcal/mol ; (12) 006_218_123_063
 C   +0.00000000   +0.00000000   +0.00000000
 O   +0.00000000   +0.00000000   +1.41313580
 C   +1.14464715   +0.00000000   +2.09374897
 C   +2.39762861   +0.14035967   +1.34124270
 C   +3.57205531   -0.43006242   +1.53179521
 C   +3.89759998   -1.46294170   +2.56002888
 C   +4.46963673   -2.74534009   +1.96491769
 C   +5.79554845   -2.56548277   +1.25211473
 O   +1.12616584   -0.10068667   +3.28988190
 H   +5.70512722   -1.93405179   +0.37079336
 H   +0.16650821   +1.00144791   -0.38619212
 H   +6.19189307   -3.52207567   +0.92090787
 H   +6.53529474   -2.11225097   +1.91028211
 H   +3.73879037   -3.18210528   +1.28438035
 H   +4.59358392   -3.45993511   +2.77752290
 H   +3.01603318   -1.67558151   +3.15608414
 H   +4.63587607   -1.02786354   +3.23788170
 H   +4.37930474   -0.12717502   +0.87364890
 H   +2.44406406   +1.07909440   +0.29752402
 H   +0.75213048   -0.67589107   -0.39840596
 H   -0.98500576   -0.34028727   -0.29467997
 H   +2.60230180   +1.64063306   -0.35560702
