22
 * E =  +0.000 kcal/mol ; (1) 180_185_275_181
 C   +0.00000000   +0.00000000   +0.00000000
 O   +0.00000000   +0.00000000   +1.41563124
 C   +1.20420267   +0.00000000   +1.98464611
 C   +1.09764149   -0.00286972   +3.45160389
 C   +2.15774248   +0.09090701   +4.23468261
 C   +3.60770897   +0.19112392   +4.00569876
 C   +4.25304948   -1.17953670   +3.81806682
 C   +5.74787923   -1.07124713   +3.60175378
 O   +2.22822246   -0.00092290   +1.34875235
 H   +5.97095844   -0.47947714   +2.71629137
 H   +0.51348344   -0.87838825   -0.37853858
 H   +6.19631068   -2.05236393   +3.46643115
 H   +6.23696969   -0.59736129   +4.45121502
 H   +3.78448191   -1.66108256   +2.96217962
 H   +4.04502455   -1.80005520   +4.68912553
 H   +4.07343587   +0.70242262   +4.84906211
 H   +3.77954082   +0.79149367   +3.11193073
 H   +1.81143077   +0.04863614   +5.58471311
 H   +0.10229300   -0.07677812   +3.86454522
 H   -1.04091079   -0.00901114   -0.29583949
 H   +0.49752269   +0.88742187   -0.37872022
 H   +1.57292658   +0.02700266   +6.43650495
22
 * E =  +0.008 kcal/mol ; (2) 180_184_256_066
 C   +0.00000000   +0.00000000   +0.00000000
 O   +0.00000000   +0.00000000   +1.41556247
 C   +1.20420821   +0.00000000   +1.98556336
 C   +1.08587405   -0.00961367   +3.45327001
 C   +2.12764306   +0.06626913   +4.26145421
 C   +3.58572041   +0.16531365   +4.10171905
 C   +4.28956684   -1.16355133   +4.37764254
 C   +3.94270085   -2.23649037   +3.36657420
 O   +2.22716487   +0.00326442   +1.34933857
 H   +2.87735710   -2.45785748   +3.37683136
 H   +0.51220947   -0.87915373   -0.37849901
 H   +4.47618700   -3.15970032   +3.57965415
 H   +4.19792740   -1.91741933   +2.35878130
 H   +4.04264363   -1.50043352   +5.38456683
 H   +5.36264453   -0.97887038   +4.36811887
 H   +3.95690342   +0.92075802   +4.79508159
 H   +3.80733305   +0.49865832   +3.08810316
 H   +1.74839524   +0.01997693   +5.60155390
 H   +0.08262203   -0.07647356   +3.84884383
 H   -1.04092990   -0.00765733   -0.29581753
 H   +0.49874663   +0.88671300   -0.37877944
 H   +1.48704819   +0.00090796   +6.44930774
22
 * E =  +0.028 kcal/mol ; (3) 180_181_243_182
 C   +0.00000000   +0.00000000   +0.00000000
 O   +0.00000000   +0.00000000   +1.41559752
 C   +1.20513471   +0.00000000   +1.98403624
 C   +1.08740908   -0.00146227   +3.45209622
 C   +2.12883541   +0.01401275   +4.26379384
 C   +3.58966842   +0.02513131   +4.11025249
 C   +4.24241922   -1.22311313   +4.69457763
 C   +5.75161139   -1.17751950   +4.57645334
 O   +2.22629199   -0.00034144   +1.34503059
 H   +6.06060160   -1.09772498   +3.53617252
 H   +0.50657114   -0.88238204   -0.37852412
 H   +6.20571080   -2.07440766   +4.99012393
 H   +6.16151330   -0.32172624   +5.11001615
 H   +3.85457509   -2.09904118   +4.17673506
 H   +3.95314783   -1.32631586   +5.74023375
 H   +3.98267146   +0.90546319   +4.62380110
 H   +3.83269522   +0.12423029   +3.05242167
 H   +1.74258842   +0.00320220   +5.60633009
 H   +0.08134115   -0.01516857   +3.84585149
 H   -1.04095749   -0.00100764   -0.29581853
 H   +0.50478865   +0.88340476   -0.37849728
 H   +1.47561920   +0.00542272   +6.45155123
22
 * E =  +0.298 kcal/mol ; (4) 180_185_276_299
 C   +0.00000000   +0.00000000   +0.00000000
 O   +0.00000000   +0.00000000   +1.41560680
 C   +1.20395274   +0.00000000   +1.98523907
 C   +1.09473842   -0.00510962   +3.45217466
 C   +2.15175619   +0.08201920   +4.24041671
 C   +3.60491052   +0.17883633   +4.01872979
 C   +4.25133265   -1.19110607   +3.81999007
 C   +4.09117000   -2.10738155   +5.01566622
 O   +2.22836157   +0.00143708   +1.35035806
 H   +4.51406228   -1.66068103   +5.91429176
 H   +0.51511217   -0.87748292   -0.37844869
 H   +4.59262028   -3.05773842   +4.85054715
 H   +3.04228534   -2.31866963   +5.21548171
 H   +5.30872155   -1.03441903   +3.61138895
 H   +3.82058763   -1.64485620   +2.92954841
 H   +4.06417631   +0.67878009   +4.87247631
 H   +3.77805591   +0.79109233   +3.13457628
 H   +1.79322820   +0.04206031   +5.58291748
 H   +0.09755896   -0.07346443   +3.86186676
 H   -1.04086396   -0.01077025   -0.29591008
 H   +0.49611130   +0.88824191   -0.37867707
 H   +1.54444047   +0.01477857   +6.43350479
22
 * E =  +1.197 kcal/mol ; (5) 180_005_273_182
 C   +0.00000000   +0.00000000   +0.00000000
 O   +0.00000000   +0.00000000   +1.41684446
 C   +1.20960593   +0.00000000   +1.97922273
 C   +1.17939860   -0.00221924   +3.45111380
 C   +0.10508727   -0.10407434   +4.21285258
 C   -1.34862678   -0.22307645   +4.01017962
 C   -2.02112600   +1.13988179   +3.87218385
 C   -3.52132834   +1.01504876   +3.70711975
 O   +2.22640158   +0.00897907   +1.33669405
 H   -3.77127742   +0.43341742   +2.82167775
 H   +0.50428472   -0.88315736   -0.37931028
 H   -3.98790213   +1.99161020   +3.60475446
 H   -3.97263452   +0.52068389   +4.56552311
 H   -1.58782684   +1.65050254   +3.01408406
 H   -1.79156509   +1.74541832   +4.74817798
 H   -1.78231825   -0.75586419   +4.85759447
 H   -1.54226485   -0.81568649   +3.11675229
 H   +0.44127684   -0.05257096   +5.55441097
 H   +2.15959940   +0.08276253   +3.89748468
 H   -1.04110086   +0.00132525   -0.29610172
 H   +0.50621330   +0.88250515   -0.37822848
 H   +0.67329438   -0.02844615   +6.41367408
22
 * E =  +1.240 kcal/mol ; (6) 180_001_254_067
 C   +0.00000000   +0.00000000   +0.00000000
 O   +0.00000000   +0.00000000   +1.41660885
 C   +1.20659188   +0.00000000   +1.98200048
 C   +1.18060192   +0.00569485   +3.45501019
 C   +0.11435822   -0.01147283   +4.23405236
 C   -1.35042891   -0.02689830   +4.09476724
 C   -1.96938581   +1.32990852   +4.43129949
 C   -1.59463313   +2.41278323   +3.44122129
 O   +2.22536117   +0.00044712   +1.34225530
 H   -0.51658084   +2.55464593   +3.40134281
 H   +0.50789998   -0.88117137   -0.37908945
 H   -2.04603360   +3.36389548   +3.71242424
 H   -1.92835887   +2.15524768   +2.43810606
 H   -1.66767305   +1.62153608   +5.43715927
 H   -3.05120479   +1.20854182   +4.45620110
 H   -1.74687996   -0.78039300   +4.77630486
 H   -1.62191522   -0.32079166   +3.08189910
 H   +0.47702303   +0.01956459   +5.56876804
 H   +2.16911896   +0.02756063   +3.89132754
 H   -1.04113255   -0.00327076   -0.29600169
 H   +0.50220139   +0.88467404   -0.37853115
 H   +0.72685596   +0.02562742   +6.42583442
22
 * E =  +1.458 kcal/mol ; (7) 180_004_274_299
 C   +0.00000000   +0.00000000   +0.00000000
 O   +0.00000000   +0.00000000   +1.41695328
 C   +1.20993855   +0.00000000   +1.97791927
 C   +1.18371115   +0.00583570   +3.45000306
 C   +0.11136434   -0.06614817   +4.21826599
 C   -1.34728162   -0.15687126   +4.02351737
 C   -1.99634146   +1.21479375   +3.84736305
 C   -1.80443537   +2.12521053   +5.04302385
 O   +2.22615205   +0.00240749   +1.33424308
 H   -2.20457902   +1.67386090   +5.94953889
 H   +0.50091159   -0.88509525   -0.37922889
 H   -2.30938885   +3.07648237   +4.89537463
 H   -0.75067597   +2.33419851   +5.21656666
 H   -3.05941244   +1.06221374   +3.66518529
 H   -1.58598755   +1.67693219   +2.95122066
 H   -1.78583046   -0.65370737   +4.89012379
 H   -1.55155680   -0.77506749   +3.15130491
 H   +0.46229211   -0.01767768   +5.55119310
 H   +2.16752428   +0.07163123   +3.89182508
 H   -1.04111884   +0.00532095   -0.29592332
 H   +0.50984096   +0.88050294   -0.37799824
 H   +0.70627849   +0.01173515   +6.40918044
22
 * E =  +1.554 kcal/mol ; (8) 180_000_180_180
 C   +0.00000000   +0.00000000   +0.00000000
 O   +0.00000000   +0.00000000   +1.41656190
 C   +1.20975523   +0.00000000   +1.97902397
 C   +1.16915575   +0.00000192   +3.44923554
 C   +0.07600621   +0.00001980   +4.19044535
 C   -1.38016548   +0.00004446   +3.95007429
 C   -2.21444796   +0.00010364   +5.22143133
 C   -3.69882345   +0.00012906   +4.92531993
 O   +2.22780095   -0.00000279   +1.33811119
 H   -3.98476892   +0.87852481   +4.34929104
 H   +0.50541477   -0.88275698   -0.37880380
 H   -4.28443414   +0.00017159   +5.84094483
 H   -3.98481010   -0.87828954   +4.34934632
 H   -1.95394141   +0.87184536   +5.82118387
 H   -1.95398204   -0.87161257   +5.82123859
 H   -1.62867414   -0.86920446   +3.33831132
 H   -1.62863557   +0.86926335   +3.33825344
 H   +0.40764272   +0.00001589   +5.54005283
 H   +2.14577317   -0.00001166   +3.91078342
 H   -1.04108828   +0.00000072   -0.29612654
 H   +0.50541673   +0.88275571   -0.37880402
 H   +0.66289141   +0.00001385   +6.39147802
22
 * E =  +8.465 kcal/mol ; (9) 355_166_087_179
 C   +0.00000000   +0.00000000   +0.00000000
 O   +0.00000000   +0.00000000   +1.40927518
 C   +1.13727152   +0.00000000   +2.11364133
 C   +2.41223131   -0.12513300   +1.37458854
 C   +3.57142271   +0.13446723   +1.95676120
 C   +3.98622079   +0.55555591   +3.30228809
 C   +4.19017493   -0.63855495   +4.23222802
 C   +4.63111415   -0.20135374   +5.61331777
 O   +1.07552509   +0.09455829   +3.30911018
 H   +5.57234773   +0.34457611   +5.57453448
 H   +0.35406293   -0.94857666   -0.39783207
 H   +4.77139780   -1.05786141   +6.26797201
 H   +3.88733644   +0.44739437   +6.07122873
 H   +4.92887223   -1.31282637   +3.79988423
 H   +3.25060444   -1.18322105   +4.29289530
 H   +3.21421435   +1.20242059   +3.71996897
 H   +4.91139457   +1.12913531   +3.23352987
 H   +4.63896807   -0.07896837   +1.09257388
 H   +2.40190167   -0.43572176   +0.34082316
 H   -1.03324932   +0.13945079   -0.29278590
 H   +0.59718745   +0.81620142   -0.39908618
 H   +5.30330627   -0.21786864   +0.51967845
22
 * E =  +8.692 kcal/mol ; (10) 006_196_253_066
 C   +0.00000000   +0.00000000   +0.00000000
 O   +0.00000000   +0.00000000   +1.40935627
 C   +1.13640332   +0.00000000   +2.11591846
 C   +2.41010569   +0.12701824   +1.37168193
 C   +3.57483921   -0.17580977   +1.91896953
 C   +4.03851385   -0.67352754   +3.22106928
 C   +4.72702664   +0.41876313   +4.04066024
 C   +3.78618219   +1.53067038   +4.45524886
 O   +1.07180932   -0.09554479   +3.31026256
 H   +3.34719437   +2.02021047   +3.58826442
 H   +0.60617570   -0.80930441   -0.39945131
 H   +4.31031349   +2.28547265   +5.03656023
 H   +2.96505878   +1.14339702   +5.05279848
 H   +5.56220324   +0.82378891   +3.46870791
 H   +5.15728999   -0.05173742   +4.92327749
 H   +4.74199602   -1.48824633   +3.04532223
 H   +3.18563348   -1.06879312   +3.77263437
 H   +4.62865320   +0.04867015   +1.04144552
 H   +2.39029097   +0.47639882   +0.35008765
 H   -1.03176388   -0.15072849   -0.29256204
 H   +0.34326763   +0.95254963   -0.39784290
 H   +5.28501562   +0.19305657   +0.45741980
22
 * E =  +8.835 kcal/mol ; (11) 354_168_086_061
 C   +0.00000000   +0.00000000   +0.00000000
 O   +0.00000000   +0.00000000   +1.40921451
 C   +1.13637834   +0.00000000   +2.11520844
 C   +2.41249258   -0.12787178   +1.37879562
 C   +3.57368032   +0.10569853   +1.96869614
 C   +3.99102068   +0.49888103   +3.32408799
 C   +4.13457249   -0.70577650   +4.25365312
 C   +5.17816698   -1.70100561   +3.78959225
 O   +1.07267492   +0.09642677   +3.31033873
 H   +4.91586348   -2.13210147   +2.82505134
 H   +0.36037614   -0.94604435   -0.39816601
 H   +5.27845997   -2.51966895   +4.49777632
 H   +6.15504930   -1.23090762   +3.68564274
 H   +3.16021225   -1.18098354   +4.34270089
 H   +4.39345980   -0.33124027   +5.24287832
 H   +3.24214470   +1.17725396   +3.73141934
 H   +4.94099300   +1.03161093   +3.26505766
 H   +4.63167286   -0.09813700   +1.09830851
 H   +2.40235008   -0.41640401   +0.33866454
 H   -1.03420574   +0.13253123   -0.29261481
 H   +0.59127672   +0.82046774   -0.39919054
 H   +5.29244667   -0.23683139   +0.51799363
