22
 * E =  +0.000 kcal/mol ; (1) 182_186_273_182_081
 C   +0.00000000   +0.00000000   +0.00000000
 O   +0.00000000   +0.00000000   +1.37859376
 C   +1.20339910   +0.00000000   +1.98645397
 C   +1.03907594   -0.04838965   +3.43861459
 C   +2.04593813   +0.04829268   +4.30836082
 C   +3.49637176   +0.20547333   +4.01281638
 C   +4.17902511   -1.14490437   +3.80660129
 C   +5.66434396   -0.99447298   +3.55296850
 O   +2.23421320   +0.03143106   +1.36729487
 H   +5.84626448   -0.39412606   +2.66389831
 H   +0.19859793   -1.25751291   -0.40550705
 H   +6.13819802   -1.96155820   +3.40309004
 H   +6.16122496   -0.50769671   +4.39070676
 H   +3.70510088   -1.64024180   +2.96120472
 H   +4.01278009   -1.77645734   +4.67977832
 H   +3.97128362   +0.72196527   +4.84654537
 H   +3.63812895   +0.80455746   +3.11805825
 H   +1.77766659   -0.02407501   +5.35520794
 H   +0.02623221   -0.17112741   +3.78775620
 H   -0.98860422   +0.25082810   -0.35651636
 H   +0.82484237   +0.54625750   -0.43938425
 H   +0.32955152   -2.15281844   -0.63958386
22
 * E =  +0.001 kcal/mol ; (2) 179_186_272_182_279
 C   +0.00000000   +0.00000000   +0.00000000
 O   +0.00000000   +0.00000000   +1.37860918
 C   +1.20418142   +0.00000000   +1.98498291
 C   +1.04262585   +0.02494920   +3.43810994
 C   +2.05369711   +0.14895883   +4.29937180
 C   +3.50506001   +0.26913488   +3.99238217
 C   +4.17224631   -1.09961007   +3.87863586
 C   +5.65908506   -0.98395533   +3.61568230
 O   +2.23396556   -0.03297287   +1.36408359
 H   +5.84752510   -0.44654446   +2.68854364
 H   +0.19587159   +1.25809654   -0.40625336
 H   +6.12183228   -1.96429523   +3.53135903
 H   +6.16182664   -0.44776438   +4.41900207
 H   +3.69195413   -1.64554924   +3.06866025
 H   +3.99924877   -1.66901030   +4.79236414
 H   +3.98679117   +0.83567514   +4.78893865
 H   +3.65165396   +0.80403620   +3.05858258
 H   +1.78794759   +0.13623094   +5.34931826
 H   +0.02837414   -0.05726677   +3.79504860
 H   +0.82656187   -0.54433312   -0.43869018
 H   -0.98805098   -0.25285066   -0.35666235
 H   +0.32513033   +2.15316415   -0.64048713
22
 * E =  +0.052 kcal/mol ; (3) 181_180_236_183_081
 C   +0.00000000   +0.00000000   +0.00000000
 O   +0.00000000   +0.00000000   +1.37831998
 C   +1.20373454   +0.00000000   +1.98763053
 C   +1.02149782   -0.03439265   +3.44028072
 C   +2.00326404   -0.03556609   +4.34254870
 C   +3.47315094   -0.00876303   +4.13322714
 C   +4.16037088   -1.18599406   +4.81497278
 C   +5.66759343   -1.12195183   +4.67841845
 O   +2.23226607   +0.02949477   +1.36605507
 H   +5.96479993   -1.12483499   +3.63174102
 H   +0.19137261   -1.25829692   -0.40616784
 H   +6.14520640   -1.97057009   +5.16191549
 H   +6.06402488   -0.21482342   +5.13143616
 H   +3.78930792   -2.11380407   +4.38067561
 H   +3.88611388   -1.20864198   +5.87075598
 H   +3.85438784   +0.91596939   +4.57498574
 H   +3.71308172   +0.01323403   +3.07655376
 H   +1.69123327   -0.07121809   +5.38073606
 H   -0.00626415   -0.06428204   +3.76583197
 H   -0.98723229   +0.25611492   -0.35663445
 H   +0.82808427   +0.54169011   -0.43903393
 H   +0.31696215   -2.15411544   -0.64126568
22
 * E =  +0.078 kcal/mol ; (4) 179_179_235_183_279
 C   +0.00000000   +0.00000000   +0.00000000
 O   +0.00000000   +0.00000000   +1.37831078
 C   +1.20344194   +0.00000000   +1.98826763
 C   +1.01998526   +0.03255168   +3.44082364
 C   +2.00016360   +0.01292111   +4.34452933
 C   +3.46925737   -0.05260090   +4.13816957
 C   +4.09136564   -1.22304590   +4.88996670
 C   +5.59991641   -1.24986488   +4.75532090
 O   +2.23234455   -0.03035302   +1.36738219
 H   +5.89721902   -1.33061183   +3.71176431
 H   +0.18917146   +1.25849835   -0.40625415
 H   +6.03015976   -2.09322904   +5.28982025
 H   +6.04520603   -0.34057900   +5.15544058
 H   +3.67027584   -2.15364376   +4.51042160
 H   +3.81613657   -1.16831229   +5.94432856
 H   +3.90011875   +0.87470346   +4.52566014
 H   +3.70975445   -0.10384551   +3.08261956
 H   +1.68655737   +0.03813592   +5.38257456
 H   -0.00772255   +0.07468523   +3.76517453
 H   +0.82883695   -0.54044418   -0.43911678
 H   -0.98682316   -0.25766260   -0.35665528
 H   +0.31296952   +2.15450504   -0.64185400
22
 * E =  +0.138 kcal/mol ; (5) 179_184_253_068_279
 C   +0.00000000   +0.00000000   +0.00000000
 O   +0.00000000   +0.00000000   +1.37834483
 C   +1.20313564   +0.00000000   +1.98814091
 C   +1.02269120   +0.01219211   +3.44115689
 C   +2.00859109   +0.08898418   +4.33572944
 C   +3.47527448   +0.17722496   +4.11026559
 C   +4.17834330   -1.13595240   +4.45810405
 C   +3.82866398   -2.26306450   +3.50809204
 O   +2.23286476   -0.02409866   +1.36811736
 H   +2.76122926   -2.47477305   +3.52175386
 H   +0.19023008   +1.25858389   -0.40663173
 H   +4.35205633   -3.17785290   +3.77620586
 H   +4.09512264   -2.00402184   +2.48614230
 H   +3.93445568   -1.42109423   +5.48275160
 H   +5.25262786   -0.95834791   +4.43779631
 H   +3.86349862   +0.96357527   +4.75842985
 H   +3.69203625   +0.44643795   +3.08269468
 H   +1.70498056   +0.06740611   +5.37643048
 H   -0.00222260   -0.04450980   +3.77235965
 H   +0.82879598   -0.54086810   -0.43879405
 H   -0.98695149   -0.25710493   -0.35668364
 H   +0.31500066   +2.15417059   -0.64206780
22
 * E =  +0.562 kcal/mol ; (6) 179_186_272_300_279
 C   +0.00000000   +0.00000000   +0.00000000
 O   +0.00000000   +0.00000000   +1.37857373
 C   +1.20387326   +0.00000000   +1.98565999
 C   +1.04027741   +0.03339883   +3.43846925
 C   +2.04905850   +0.16211980   +4.30201543
 C   +3.50286931   +0.28188705   +3.99599043
 C   +4.18303313   -1.08177341   +3.87667319
 C   +4.09446717   -1.91717894   +5.13803921
 O   +2.23417130   -0.03575052   +1.36610054
 H   +4.52664592   -1.39309222   +5.98963907
 H   +0.19532388   +1.25816658   -0.40583460
 H   +4.62903049   -2.85709682   +5.02430044
 H   +3.06206490   -2.15764241   +5.38555173
 H   +5.22800115   -0.91545935   +3.61853070
 H   +3.73681584   -1.61323489   +3.03806355
 H   +3.97917441   +0.84786838   +4.79639636
 H   +3.64323516   +0.82234652   +3.06515046
 H   +1.77631414   +0.16497399   +5.34988428
 H   +0.02455081   -0.03987285   +3.79338436
 H   +0.82686172   -0.54388485   -0.43869826
 H   -0.98789948   -0.25326548   -0.35678096
 H   +0.32427795   +2.15350927   -0.63955967
22
 * E =  +0.570 kcal/mol ; (7) 181_186_273_300_081
 C   +0.00000000   +0.00000000   +0.00000000
 O   +0.00000000   +0.00000000   +1.37871889
 C   +1.20438378   +0.00000000   +1.98474999
 C   +1.04330055   -0.02660360   +3.43798168
 C   +2.05186116   +0.09048391   +4.30349430
 C   +3.50188111   +0.25306487   +3.99827740
 C   +4.20643367   -1.09007465   +3.80749683
 C   +4.13934671   -1.98915766   +5.02564606
 O   +2.23415693   +0.01995105   +1.36363429
 H   +4.56663993   -1.50107016   +5.90082306
 H   +0.19813074   -1.25769043   -0.40603344
 H   +4.68978883   -2.91238462   +4.86210886
 H   +3.11266020   -2.26045711   +5.26492080
 H   +5.24690548   -0.89132410   +3.55410385
 H   +3.76620778   -1.58685515   +2.94488133
 H   +3.97171461   +0.78724691   +4.82391808
 H   +3.62793335   +0.84148950   +3.09478883
 H   +1.78295339   +0.04437929   +5.35132672
 H   +0.03094086   -0.14106663   +3.79155117
 H   -0.98855837   +0.25121340   -0.35637607
 H   +0.82511005   +0.54585141   -0.43933508
 H   +0.32816919   -2.15281374   -0.64037817
22
 * E =  +2.025 kcal/mol ; (8) 182_356_107_291_083
 C   +0.00000000   +0.00000000   +0.00000000
 O   +0.00000000   +0.00000000   +1.38024621
 C   +1.19989433   +0.00000000   +1.98898473
 C   +1.14179989   -0.04107948   +3.45281659
 C   +0.08137577   -0.01214435   +4.26153677
 C   -1.37527406   +0.06571344   +3.96640570
 C   -2.06948724   -1.27313038   +4.22217622
 C   -1.67009677   -2.34686837   +3.23106466
 O   +2.23038269   +0.02425681   +1.37137151
 H   -1.92868297   -2.05475274   +2.21556498
 H   +0.15195819   -1.26843373   -0.40035192
 H   -2.17082741   -3.28717386   +3.44860688
 H   -0.59732618   -2.52770129   +3.25368596
 H   -3.14566633   -1.11179067   +4.17671144
 H   -1.85289621   -1.60557131   +5.23835757
 H   -1.55950723   +0.38497392   +2.94716781
 H   -1.80490710   +0.81378269   +4.63334342
 H   +0.31280047   -0.07754645   +5.31907279
 H   +2.12868895   -0.10527399   +3.88368074
 H   -0.98016513   +0.28262638   -0.35665864
 H   +0.84227959   +0.51813115   -0.43954923
 H   +0.24502998   -2.16913727   -0.62412784
22
 * E =  +2.062 kcal/mol ; (9) 179_350_110_292_279
 C   +0.00000000   +0.00000000   +0.00000000
 O   +0.00000000   +0.00000000   +1.38089648
 C   +1.20568453   +0.00000000   +1.97931911
 C   +1.16732274   +0.01486749   +3.44446861
 C   +0.13822936   +0.21422959   +4.26865404
 C   -1.29923828   +0.48138562   +3.99532266
 C   -2.17550473   -0.71202317   +4.37630570
 C   -1.95782591   -1.91605395   +3.48326067
 O   +2.22955555   -0.03613722   +1.35125381
 H   -2.18735988   -1.67685966   +2.44707583
 H   +0.19759350   +1.26111223   -0.40686051
 H   -2.58933297   -2.74819953   +3.78492946
 H   -0.92336612   -2.25189047   +3.51801007
 H   -3.21749911   -0.39929796   +4.32577377
 H   -1.98743753   -0.98213063   +5.41636676
 H   -1.46466629   +0.74432856   +2.95755360
 H   -1.59291490   +1.33686516   +4.60475522
 H   +0.38354392   +0.16732806   +5.32414690
 H   +2.14872399   -0.14626704   +3.86257441
 H   +0.82407950   -0.54710468   -0.43890270
 H   -0.98933193   -0.25111709   -0.35484266
 H   +0.32440762   +2.15421174   -0.63969548
22
 * E =  +7.365 kcal/mol ; (10) 346_158_095_178_077
 C   +0.00000000   +0.00000000   +0.00000000
 O   +0.00000000   +0.00000000   +1.37415832
 C   +1.15344773   +0.00000000   +2.08248161
 C   +2.38868108   -0.31561961   +1.35007852
 C   +3.59811807   +0.05583984   +1.77401388
 C   +3.94162810   +0.83766988   +2.99065518
 C   +4.29156005   -0.07939301   +4.16041188
 C   +4.69795333   +0.70529022   +5.39024696
 O   +1.08999353   +0.22869852   +3.25661915
 H   +5.57279951   +1.32333081   +5.19439046
 H   +0.29019656   -1.21463362   -0.45599242
 H   +4.93877510   +0.04223694   +6.21755591
 H   +3.89262676   +1.36107808   +5.71459028
 H   +5.09606021   -0.75538110   +3.86866181
 H   +3.42097612   -0.69407113   +4.37969393
 H   +3.11285076   +1.47490373   +3.28508008
 H   +4.79890038   +1.47338008   +2.76735004
 H   +4.43632489   -0.26838062   +1.16881378
 H   +2.30215494   -0.89095840   +0.44201148
 H   -1.00944109   +0.16540644   -0.35047209
 H   +0.74282950   +0.64863930   -0.45420014
 H   +0.50781302   -2.08694642   -0.75360738
22
 * E =  +7.670 kcal/mol ; (11) 346_156_112_293_077
 C   +0.00000000   +0.00000000   +0.00000000
 O   +0.00000000   +0.00000000   +1.37412828
 C   +1.15285082   +0.00000000   +2.08477576
 C   +2.38391060   -0.32821224   +1.34800674
 C   +3.60348831   +0.04816672   +1.73528132
 C   +4.00392009   +0.86922513   +2.90704542
 C   +4.76744930   +0.03712888   +3.93807168
 C   +3.90529974   -1.01371318   +4.60672337
 O   +1.08621703   +0.23317504   +3.25706262
 H   +3.06242694   -0.55615160   +5.11789410
 H   +0.27861612   -1.21677733   -0.45627828
 H   +4.47966764   -1.58538862   +5.33194588
 H   +3.49565688   -1.71098030   +3.87852332
 H   +5.16979150   +0.71669874   +4.68793161
 H   +5.62782799   -0.43294303   +3.45875840
 H   +3.13944511   +1.32690253   +3.37580426
 H   +4.65942891   +1.66305046   +2.54591723
 H   +4.42507480   -0.29210222   +1.11445467
 H   +2.28102087   -0.92123831   +0.45279993
 H   -1.00804716   +0.17424867   -0.35031883
 H   +0.74842768   +0.64195467   -0.45445104
 H   +0.48810731   -2.09141089   -0.75427531
22
 * E =  +7.678 kcal/mol ; (12) 346_160_214_182_076
 C   +0.00000000   +0.00000000   +0.00000000
 O   +0.00000000   +0.00000000   +1.37386202
 C   +1.15352912   +0.00000000   +2.08386050
 C   +2.38705183   -0.32419765   +1.35412848
 C   +3.60180276   +0.00901023   +1.79395785
 C   +3.97342667   +0.77051449   +3.01441432
 C   +5.21214065   +1.62681214   +2.80794708
 C   +5.61917946   +2.35988138   +4.06919136
 O   +1.08953838   +0.23776685   +3.25588116
 H   +4.82232819   +3.01514711   +4.41528596
 H   +0.29260667   -1.21314097   -0.45754608
 H   +6.50379087   +2.97024185   +3.90574581
 H   +5.84123570   +1.66068486   +4.87337963
 H   +5.02425960   +2.34576107   +2.00992233
 H   +6.03580445   +0.99822763   +2.46581978
 H   +4.16385722   +0.04678498   +3.81200547
 H   +3.13625395   +1.36762944   +3.36456048
 H   +4.43592703   -0.31231794   +1.17956234
 H   +2.29785091   -0.87685207   +0.43262642
 H   -1.00986742   +0.16317401   -0.35044497
 H   +0.74076599   +0.65095848   -0.45441167
 H   +0.51219783   -2.08453043   -0.75762747
22
 * E =  +7.780 kcal/mol ; (13) 346_160_212_065_076
 C   +0.00000000   +0.00000000   +0.00000000
 O   +0.00000000   +0.00000000   +1.37383580
 C   +1.15375979   +0.00000000   +2.08350947
 C   +2.38699808   -0.32592338   +1.35446490
 C   +3.60104239   +0.00395258   +1.79855232
 C   +3.97296063   +0.75141565   +3.02917636
 C   +5.23805372   +1.57432953   +2.84264042
 C   +5.06701497   +2.68970668   +1.83059593
 O   +1.09046521   +0.23931827   +3.25532377
 H   +4.79982585   +2.29811554   +0.84999770
 H   +0.29363649   -1.21282664   -0.45770045
 H   +5.98040868   +3.26821597   +1.71668138
 H   +4.27558767   +3.37206827   +2.13553981
 H   +6.05572112   +0.91950662   +2.53647369
 H   +5.52777788   +1.99377400   +3.80452115
 H   +4.12254392   +0.01768179   +3.82462441
 H   +3.14613920   +1.37250705   +3.36286222
 H   +4.43670158   -0.31718200   +1.18518786
 H   +2.29823640   -0.87654279   +0.43166805
 H   -1.01005762   +0.16211351   -0.35041664
 H   +0.73985556   +0.65191569   -0.45452952
 H   +0.51401959   -2.08398348   -0.75793297
22
 * E =  +8.005 kcal/mol ; (14) 346_158_093_060_076
 C   +0.00000000   +0.00000000   +0.00000000
 O   +0.00000000   +0.00000000   +1.37406914
 C   +1.15252481   +0.00000000   +2.08418889
 C   +2.38968376   -0.31022021   +1.35286327
 C   +3.59973186   +0.04902332   +1.78651589
 C   +3.94125460   +0.81337133   +3.01728207
 C   +4.24335534   -0.10754502   +4.19977849
 C   +5.40678643   -1.04865493   +3.95917360
 O   +1.08668491   +0.22680912   +3.25852975
 H   +5.19931157   -1.74416160   +3.14795673
 H   +0.29651527   -1.21314524   -0.45604685
 H   +5.61936534   -1.64061695   +4.84591719
 H   +6.31321232   -0.50077974   +3.70391076
 H   +3.34011501   -0.66854331   +4.43003149
 H   +4.45181319   +0.51902198   +5.06583362
 H   +3.12253867   +1.47129462   +3.29117717
 H   +4.81945024   +1.42549756   +2.80983031
 H   +4.43474663   -0.26355371   +1.17169004
 H   +2.30494515   -0.86741004   +0.43345264
 H   -1.01040325   +0.15990808   -0.35026242
 H   +0.73879994   +0.65301699   -0.45452599
 H   +0.51859211   -2.08432847   -0.75339565
