22
 * E =  +0.000 kcal/mol ; (1) 179_165_082_179
 C   +0.00000000   +0.00000000   +0.00000000
 C   +0.00000000   +0.00000000   +1.47348183
 O   +1.24570625   +0.00000000   +1.94434485
 O   -0.96818894   -0.00178278   +2.18984736
 C   +1.35813584   +0.01807832   +3.35493057
 H   +2.41925499   +0.02568297   +3.56726088
 H   +0.88004335   +0.90444194   +3.76047787
 H   +0.88851823   -0.86143050   +3.78439070
 C   -1.08326309   -0.28307976   -0.74885699
 C   -2.48561526   -0.44205223   -0.28263467
 C   -3.17774648   +0.91079725   -0.12083501
 C   -4.61498226   +0.75887114   +0.33055937
 H   +0.97403961   +0.04943385   -0.46076193
 H   -0.92057958   -0.32745430   -1.81821237
 H   -3.03562575   -1.04211990   -1.00672405
 H   -2.51061583   -0.95539924   +0.67480068
 H   -2.61694141   +1.49428015   +0.60727240
 H   -3.13843885   +1.45716407   -1.06358516
 H   -5.09659145   +1.72711833   +0.44449084
 H   -5.19616589   +0.18175178   -0.38705504
 H   -4.66699352   +0.24688521   +1.28927704
 H   +0.09284789   +1.97873218   +0.06281777
22
 * E =  +0.241 kcal/mol ; (2) 179_167_078_059
 C   +0.00000000   +0.00000000   +0.00000000
 C   +0.00000000   +0.00000000   +1.47330210
 O   +1.24560361   +0.00000000   +1.94437782
 O   -0.96830653   -0.00701222   +2.18935601
 C   +1.35744436   +0.01131114   +3.35511708
 H   +0.88988674   -0.87154037   +3.77997086
 H   +2.41844318   +0.02055626   +3.56793725
 H   +0.87693998   +0.89434817   +3.76502633
 C   -1.09084769   -0.24818394   -0.74990531
 C   -2.50043941   -0.34834021   -0.28173974
 C   -3.11318504   +1.03038849   -0.02900880
 C   -3.11147650   +1.92389972   -1.25266505
 H   +0.97557849   +0.02037977   -0.45989299
 H   -0.92422763   -0.30871413   -1.81748105
 H   -3.08596812   -0.86981600   -1.03785024
 H   -2.54656768   -0.91919518   +0.64165899
 H   -4.13300513   +0.88813595   +0.32612603
 H   -2.56215350   +1.50149846   +0.78300579
 H   -3.59494344   +2.87517195   -1.04395654
 H   -2.09645279   +2.14028592   -1.58244443
 H   -3.64052631   +1.45952835   -2.08413721
 H   +0.11165178   +1.98878737   +0.05487652
22
 * E =  +0.246 kcal/mol ; (3) 179_170_182_180
 C   +0.00000000   +0.00000000   +0.00000000
 C   +0.00000000   +0.00000000   +1.47138039
 O   +1.24290216   +0.00000000   +1.95026395
 O   -0.97436507   -0.00842496   +2.17929853
 C   +1.34556906   +0.01218269   +3.36145007
 H   +2.40521381   +0.01728753   +3.58134410
 H   +0.86625888   +0.89763886   +3.76759311
 H   +0.87161102   -0.86825815   +3.78434515
 C   -1.11290218   -0.19400569   -0.73209679
 C   -2.51646385   -0.26602699   -0.24512468
 C   -3.51284666   -0.53601521   -1.35682318
 C   -4.93860122   -0.60317255   -0.85137226
 H   +0.97017169   -0.02520345   -0.47040048
 H   -0.97355734   -0.26466068   -1.80441063
 H   -2.59345391   -1.02422905   +0.53492120
 H   -2.76041581   +0.66741743   +0.26698725
 H   -3.42838320   +0.24407920   -2.11479902
 H   -3.25457835   -1.47292312   -1.85241084
 H   -5.63923670   -0.79712189   -1.65970874
 H   -5.05492128   -1.39473524   -0.11337916
 H   -5.22946781   +0.33208510   -0.37649855
 H   +0.25097766   +1.97141841   +0.05707347
22
 * E =  +0.320 kcal/mol ; (4) 180_175_270_182
 C   +0.00000000   +0.00000000   +0.00000000
 C   +0.00000000   +0.00000000   +1.47415688
 O   +1.24588259   +0.00000000   +1.94455199
 O   -0.96710909   -0.01918169   +2.19156407
 C   +1.35942364   +0.00086572   +3.35494868
 H   +2.42072850   -0.00133678   +3.56648074
 H   +0.88843479   +0.88595102   +3.77142371
 H   +0.88359788   -0.88007641   +3.77468773
 C   -1.11220715   -0.10295552   -0.75288680
 C   -2.52568297   -0.06530913   -0.29347271
 C   -3.05322340   -1.45875529   +0.04354920
 C   -4.50785560   -1.42574864   +0.46350585
 H   +0.97077327   -0.11260363   -0.45698466
 H   -0.95448239   -0.21576537   -1.81805246
 H   -2.62026936   +0.56324282   +0.58722686
 H   -3.13982615   +0.36359449   -1.08548345
 H   -2.92960911   -2.11505965   -0.81842511
 H   -2.44373495   -1.86946583   +0.84635013
 H   -4.87151802   -2.42182504   +0.70429150
 H   -4.64215339   -0.80085463   +1.34406934
 H   -5.13850245   -1.02463111   -0.32834637
 H   +0.42596654   +1.92678782   +0.05118085
22
 * E =  +0.355 kcal/mol ; (5) 179_170_126_295
 C   +0.00000000   +0.00000000   +0.00000000
 C   +0.00000000   +0.00000000   +1.47614596
 O   +1.25129914   +0.00000000   +1.93426819
 O   -0.95745302   -0.00797320   +2.20543589
 C   +1.37893140   +0.01343327   +3.34335973
 H   +2.44234845   +0.01439036   +3.54415813
 H   +0.91081403   +0.90156578   +3.75658630
 H   +0.90864644   -0.86436511   +3.77561369
 C   -1.08470432   -0.19216345   -0.77444357
 C   -2.51500551   -0.27204245   -0.38392615
 C   -3.36764666   +0.71656931   -1.17381250
 C   -3.01519573   +2.16009891   -0.87624110
 H   +0.98158238   -0.03353521   -0.44672062
 H   -0.89599367   -0.26132225   -1.84043022
 H   -2.86143720   -1.28530479   -0.60212979
 H   -2.63076702   -0.11300299   +0.68210612
 H   -3.25687525   +0.52068109   -2.24171704
 H   -4.41488218   +0.53491014   -0.93640309
 H   -3.64966309   +2.84568689   -1.43297566
 H   -3.13397584   +2.37744268   +0.18343528
 H   -1.98064799   +2.37716881   -1.13692267
 H   +0.28207458   +1.95055689   +0.05438393
22
 * E =  +0.459 kcal/mol ; (6) 180_171_248_067
 C   +0.00000000   +0.00000000   +0.00000000
 C   +0.00000000   +0.00000000   +1.47595085
 O   +1.25060273   +0.00000000   +1.93558317
 O   -0.95856978   -0.01652144   +2.20384218
 C   +1.37668583   +0.00351110   +3.34487543
 H   +0.90614938   -0.87745085   +3.77041128
 H   +2.43987858   +0.00327268   +3.54682467
 H   +0.90805219   +0.88862153   +3.76395916
 C   -1.09157638   -0.16933871   -0.77007734
 C   -2.52012366   -0.20850602   -0.36648730
 C   -3.11963176   -1.60450479   -0.54027211
 C   -2.53015136   -2.61956852   +0.41787071
 H   +0.97982910   -0.06105475   -0.44772594
 H   -0.90712031   -0.27458195   -1.83304796
 H   -2.63870220   +0.11609215   +0.66097189
 H   -3.06415806   +0.48748821   -1.00750952
 H   -4.19516870   -1.53304977   -0.38453516
 H   -2.98007254   -1.93751936   -1.56996738
 H   -2.98609203   -3.59778327   +0.28405530
 H   -1.45793770   -2.72945158   +0.26549523
 H   -2.68157902   -2.31060386   +1.44958513
 H   +0.33096079   +1.94286151   +0.05329767
22
 * E =  +0.895 kcal/mol ; (7) 180_175_270_300
 C   +0.00000000   +0.00000000   +0.00000000
 C   +0.00000000   +0.00000000   +1.47438728
 O   +1.24631486   +0.00000000   +1.94401059
 O   -0.96664256   -0.01687678   +2.19220678
 C   +1.36060765   +0.00449319   +3.35433920
 H   +2.42200671   -0.00172016   +3.56533995
 H   +0.89382640   +0.89297119   +3.76836000
 H   +0.88096972   -0.87297124   +3.77696848
 C   -1.11042656   -0.10619311   -0.75528385
 C   -2.52633632   -0.06693129   -0.29696511
 C   -3.06522684   -1.45192424   +0.06312164
 C   -3.04472149   -2.43037287   -1.09398101
 H   +0.97196219   -0.10519533   -0.45640405
 H   -0.94669855   -0.20954832   -1.82016575
 H   -2.61629748   +0.57772755   +0.57158731
 H   -3.13623740   +0.35127355   -1.09808805
 H   -2.48436113   -1.83905732   +0.89810513
 H   -4.08564556   -1.33193278   +0.42480946
 H   -3.47571198   -3.38653277   -0.80714907
 H   -3.61597700   -2.05208578   -1.94088796
 H   -2.02942032   -2.62041919   -1.43758924
 H   +0.41542849   +1.92911699   +0.05466856
22
 * E =  +1.650 kcal/mol ; (8) 181_336_086_178
 C   +0.00000000   +0.00000000   +0.00000000
 C   +0.00000000   +0.00000000   +1.47557677
 O   +1.21330339   +0.00000000   +2.02388628
 O   -1.00988859   -0.00999583   +2.12887852
 C   +1.22949266   -0.01359281   +3.44082363
 H   +2.27399012   -0.01855096   +3.72452474
 H   +0.72941863   +0.86541753   +3.83496287
 H   +0.72731172   -0.90031403   +3.81446868
 C   +0.97303684   +0.43622093   -0.82203071
 C   +2.37318731   +0.81544358   -0.49360396
 C   +3.29651144   -0.40149696   -0.50671552
 C   +4.73615873   -0.02627815   -0.22407418
 H   -0.98205580   -0.19134896   -0.40322911
 H   +0.72064464   +0.44230774   -1.87507378
 H   +2.72385396   +1.53558372   -1.23263666
 H   +2.42969651   +1.28918554   +0.48195020
 H   +2.93788339   -1.11068966   +0.23774614
 H   +3.22620200   -0.90097169   -1.47323880
 H   +5.38100974   -0.90171479   -0.23091357
 H   +5.11602857   +0.67091923   -0.96904484
 H   +4.83149449   +0.44864586   +0.75073048
 H   +0.25324632   -1.97295908   +0.05405027
22
 * E =  +1.816 kcal/mol ; (9) 180_343_183_180
 C   +0.00000000   +0.00000000   +0.00000000
 C   +0.00000000   +0.00000000   +1.47353427
 O   +1.21761144   +0.00000000   +2.01233640
 O   -1.00601437   +0.00279999   +2.13319217
 C   +1.24468777   -0.00857871   +3.42879682
 H   +2.29129763   -0.01014624   +3.70467252
 H   +0.74548309   +0.87079393   +3.82326334
 H   +0.74714262   -0.89479017   +3.80994008
 C   +1.02813998   +0.31378072   -0.80973352
 C   +2.45805955   +0.54530060   -0.46238428
 C   +3.29255450   +0.95242843   -1.66256365
 C   +4.74664544   +1.17916810   -1.30647362
 H   -0.99389309   -0.07862472   -0.41120467
 H   +0.79071482   +0.36337629   -1.86605842
 H   +2.53212115   +1.29851080   +0.32201012
 H   +2.86414391   -0.36393407   -0.01357056
 H   +3.21832630   +0.18146763   -2.43061488
 H   +2.87515099   +1.86045565   -2.09949033
 H   +5.32930811   +1.46903352   -2.17720361
 H   +4.84943166   +1.96669298   -0.56194961
 H   +5.19394004   +0.27663591   -0.89361938
 H   +0.01379567   -1.99614864   +0.05479778
22
 * E =  +1.928 kcal/mol ; (10) 180_340_081_058
 C   +0.00000000   +0.00000000   +0.00000000
 C   +0.00000000   +0.00000000   +1.47530762
 O   +1.21214290   +0.00000000   +2.02532972
 O   -1.01095781   -0.00088358   +2.12723510
 C   +1.22671505   -0.00195932   +3.44235778
 H   +2.27093222   -0.00519077   +3.72712431
 H   +0.72692892   +0.88088821   +3.82818228
 H   +0.72324045   -0.88496674   +3.82295402
 C   +0.99684588   +0.36936229   -0.82670075
 C   +2.42648896   +0.63484279   -0.50331563
 C   +3.23387158   -0.66140531   -0.41012617
 C   +3.19449070   -1.48887913   -1.67884199
 H   -0.99332815   -0.12964151   -0.40034342
 H   +0.73429189   +0.40078961   -1.87633298
 H   +2.84907349   +1.26227873   -1.28737865
 H   +2.51319651   +1.17155536   +0.43652752
 H   +4.26427590   -0.40454196   -0.16664060
 H   +2.84671878   -1.24364105   +0.42448834
 H   +3.82145207   -2.37254979   -1.58930548
 H   +2.18324063   -1.82780813   -1.89732189
 H   +3.54830448   -0.91758239   -2.53616827
 H   +0.17239628   -1.98863681   +0.04173207
22
 * E =  +1.937 kcal/mol ; (11) 181_333_111_292
 C   +0.00000000   +0.00000000   +0.00000000
 C   +0.00000000   +0.00000000   +1.47656661
 O   +1.20997147   +0.00000000   +2.03066774
 O   -1.01276942   -0.01587532   +2.12535427
 C   +1.21893245   -0.01875178   +3.44762506
 H   +0.71453472   +0.85736315   +3.84269476
 H   +0.71767284   -0.90837577   +3.81546868
 H   +2.26205436   -0.02191688   +3.73649454
 C   +0.94146664   +0.48702001   -0.83022851
 C   +2.30075536   +1.01556810   -0.54316252
 C   +3.39729384   +0.09328266   -1.07595108
 C   +3.46005319   -1.22972945   -0.34115195
 H   -0.97524930   -0.23245328   -0.39875358
 H   +0.67874445   +0.47423656   -1.88207966
 H   +2.38715308   +1.98176905   -1.04294301
 H   +2.44434541   +1.17883039   +0.51898480
 H   +3.23956137   -0.07941706   -2.14146990
 H   +4.35133252   +0.61189839   -0.98836086
 H   +4.25396720   -1.86105557   -0.73327657
 H   +3.64230249   -1.07501476   +0.72021976
 H   +2.52282332   -1.77567714   -0.42958329
 H   +0.24049450   -1.96776240   +0.04295748
22
 * E =  +2.018 kcal/mol ; (12) 181_340_193_066
 C   +0.00000000   +0.00000000   +0.00000000
 C   +0.00000000   +0.00000000   +1.47387948
 O   +1.21633724   +0.00000000   +2.01547996
 O   -1.00726548   -0.00424210   +2.13170657
 C   +1.23995280   -0.01473537   +3.43198249
 H   +2.28588372   -0.01604922   +3.71038086
 H   +0.73825038   +0.86185536   +3.82946599
 H   +0.74304015   -0.90365220   +3.80762954
 C   +1.00867083   +0.36215849   -0.81391519
 C   +2.42998700   +0.65811589   -0.48073320
 C   +3.17090399   +1.32156340   -1.62932630
 C   +2.64698555   +2.70937933   -1.94108570
 H   -0.98947399   -0.12855368   -0.40945271
 H   +0.76563330   +0.38705646   -1.87038274
 H   +2.48726261   +1.27651063   +0.41276683
 H   +2.91703316   -0.28174794   -0.20992271
 H   +4.22935349   +1.37894373   -1.38032345
 H   +3.10078833   +0.69069133   -2.51684571
 H   +3.18534293   +3.16204177   -2.77005959
 H   +1.59123128   +2.68647171   -2.20695221
 H   +2.75016474   +3.36560197   -1.07857227
 H   +0.11024070   -1.99121850   +0.05307744
22
 * E =  +2.112 kcal/mol ; (13) 180_347_270_183
 C   +0.00000000   +0.00000000   +0.00000000
 C   +0.00000000   +0.00000000   +1.47597626
 O   +1.20941007   +0.00000000   +2.03250398
 O   -1.01282628   +0.01652599   +2.12480495
 C   +1.21526963   +0.00434482   +3.44949624
 H   +2.25771723   -0.00500534   +3.74062014
 H   +0.71984802   +0.89298521   +3.82765309
 H   +0.70293299   -0.87268243   +3.83198711
 C   +1.02970507   +0.23914375   -0.83471640
 C   +2.47963276   +0.37296991   -0.52839254
 C   +2.86919072   +1.81507225   -0.21179698
 C   +4.35574225   +1.96126374   +0.03857785
 H   -1.00432851   +0.00683891   -0.39393173
 H   +0.76055164   +0.34081560   -1.87869846
 H   +2.75503246   -0.26065255   +0.30890850
 H   +3.04809102   +0.03904769   -1.39649908
 H   +2.56630698   +2.46300907   -1.03451669
 H   +2.30819788   +2.14016604   +0.66301904
 H   +4.61855179   +2.99094950   +0.26852843
 H   +4.67331669   +1.34213559   +0.87559540
 H   +4.93351784   +1.65849794   -0.83301401
 H   -0.16405755   -1.97654126   +0.05020657
22
 * E =  +2.589 kcal/mol ; (14) 180_346_272_299
 C   +0.00000000   +0.00000000   +0.00000000
 C   +0.00000000   +0.00000000   +1.47604180
 O   +1.20901652   +0.00000000   +2.03265107
 O   -1.01336636   +0.01351536   +2.12424371
 C   +1.21456575   +0.00431857   +3.44965482
 H   +2.25693956   +0.00132801   +3.74100095
 H   +0.71337610   +0.88983343   +3.82760082
 H   +0.70738102   -0.87581333   +3.83195475
 C   +1.02366296   +0.25972146   -0.83618416
 C   +2.47292075   +0.41756139   -0.52750598
 C   +2.84508723   +1.85174490   -0.15130355
 C   +2.56657865   +2.85608155   -1.25143704
 H   -1.00438572   -0.01653173   -0.39366482
 H   +0.74924357   +0.34701989   -1.87968891
 H   +2.75742270   -0.24834477   +0.28030914
 H   +3.04319146   +0.12936448   -1.41062831
 H   +2.30124422   +2.12542335   +0.75145280
 H   +3.90406498   +1.87176713   +0.10409203
 H   +2.87895474   +3.85559969   -0.95922614
 H   +3.10060003   +2.59704246   -2.16465046
 H   +1.50541523   +2.90126304   -1.48890745
 H   -0.11936993   -1.98222334   +0.05342216
22
 * E =  +8.542 kcal/mol ; (15) 002_175_176_180
 C   +0.00000000   +0.00000000   +0.00000000
 C   +0.00000000   +0.00000000   +1.47822165
 O   +1.17870052   +0.00000000   +2.11163153
 O   -1.00499182   -0.01373059   +2.13433656
 C   +2.40278440   +0.03752369   +1.41621792
 H   +2.47112081   +0.91644477   +0.77859713
 H   +3.17031731   +0.09251892   +2.17822967
 H   +2.55404182   -0.86440741   +0.82695037
 C   -1.13796414   -0.09207914   -0.71652140
 C   -2.53800778   -0.04164616   -0.22318273
 C   -3.56005449   -0.07331253   -1.34380708
 C   -4.98270420   -0.02702854   -0.82732155
 H   +0.93610064   -0.10582399   -0.52280430
 H   -1.01507000   -0.17704378   -1.79022723
 H   -2.70008196   -0.86577853   +0.47382679
 H   -2.66599816   +0.84861285   +0.39478798
 H   -3.38628216   +0.76815789   -2.01603145
 H   -3.41533621   -0.97585142   -1.93957921
 H   -5.70291621   -0.05022948   -1.64131000
 H   -5.18953275   -0.87376643   -0.17549129
 H   -5.16017713   +0.87951183   -0.25176029
 H   +0.45521975   +1.96132348   +0.05801632
22
 * E =  +8.549 kcal/mol ; (16) 002_170_078_180
 C   +0.00000000   +0.00000000   +0.00000000
 C   +0.00000000   +0.00000000   +1.48010346
 O   +1.18155655   +0.00000000   +2.10788048
 O   -0.99940003   -0.00703188   +2.14470672
 C   +2.40469164   +0.04889281   +1.41130598
 H   +2.47483512   +0.94250423   +0.79462375
 H   +3.17310292   +0.08484505   +2.17356963
 H   +2.55310019   -0.83951584   +0.80143300
 C   -1.11412067   -0.19188778   -0.73591425
 C   -2.52256242   -0.24500471   -0.26765525
 C   -3.07551826   +1.15507187   +0.00078146
 C   -4.51426775   +1.10999705   +0.46992047
 H   +0.94630395   -0.01989451   -0.51439126
 H   -0.96090219   -0.24538337   -1.80655256
 H   -3.13141746   -0.73284502   -1.02757613
 H   -2.59156983   -0.82018633   +0.65177452
 H   -2.45115183   +1.62642643   +0.75733983
 H   -2.99643821   +1.75872794   -0.90371735
 H   -4.89854214   +2.11023164   +0.65483849
 H   -5.15838670   +0.63879652   -0.27099236
 H   -4.60053006   +0.54439823   +1.39527452
 H   +0.29599095   +1.98114078   +0.08037224
22
 * E =  +8.698 kcal/mol ; (17) 002_180_271_182
 C   +0.00000000   +0.00000000   +0.00000000
 C   +0.00000000   +0.00000000   +1.48085271
 O   +1.18120379   +0.00000000   +2.10905005
 O   -0.99947161   -0.02325454   +2.14481773
 C   +2.40682779   +0.03210626   +1.41579838
 H   +2.47232347   +0.89921715   +0.76223665
 H   +3.17182448   +0.10418897   +2.17893861
 H   +2.56391216   -0.87997725   +0.84385668
 C   -1.12827751   +0.00072725   -0.73854477
 C   -2.53016161   +0.16404523   -0.27683419
 C   -3.17067939   -1.17763432   +0.07808135
 C   -4.61388504   -1.01452824   +0.50680061
 H   +0.93188542   -0.18772165   -0.50826231
 H   -0.98857097   -0.12108310   -1.80559616
 H   -2.56807654   +0.80653934   +0.59779508
 H   -3.10723274   +0.63247986   -1.07418181
 H   -3.11087838   -1.84928855   -0.77889411
 H   -2.59211053   -1.62712820   +0.88220353
 H   -5.06021352   -1.97397050   +0.75684894
 H   -4.68596107   -0.37590471   +1.38463635
 H   -5.21353373   -0.56497576   -0.28321342
 H   +0.56774049   +1.92149297   +0.04752264
22
 * E =  +8.760 kcal/mol ; (18) 002_177_170_293
 C   +0.00000000   +0.00000000   +0.00000000
 C   +0.00000000   +0.00000000   +1.47845786
 O   +1.17867997   +0.00000000   +2.11180359
 O   -1.00471695   -0.01757792   +2.13496107
 C   +2.40333193   +0.03912382   +1.41755091
 H   +2.46747872   +0.91289803   +0.77266413
 H   +3.16960762   +0.10441187   +2.18002985
 H   +2.56034384   -0.86690924   +0.83603300
 C   -1.13988042   -0.05255465   -0.71746263
 C   -2.53914777   +0.04134619   -0.22589429
 C   -3.54951383   +0.17869278   -1.35123967
 C   -3.43074514   +1.49652516   -2.09151427
 H   +0.93292266   -0.14184656   -0.52033773
 H   -1.01797634   -0.15278232   -1.79018188
 H   -2.74878154   -0.83824201   +0.38516372
 H   -2.62136618   +0.87313169   +0.47405594
 H   -3.43065580   -0.65160015   -2.04953478
 H   -4.55170676   +0.08462852   -0.93674081
 H   -4.15657859   +1.56822772   -2.89778380
 H   -3.59643172   +2.33506008   -1.41759382
 H   -2.44135394   +1.62319018   -2.52917608
 H   +0.49714531   +1.95061307   +0.04548168
22
 * E =  +8.839 kcal/mol ; (19) 003_173_076_060
 C   +0.00000000   +0.00000000   +0.00000000
 C   +0.00000000   +0.00000000   +1.48020375
 O   +1.18248719   +0.00000000   +2.10659704
 O   -0.99827110   -0.01381272   +2.14603839
 C   +2.40517816   +0.06886931   +1.41090418
 H   +2.45859307   +0.95956606   +0.78851016
 H   +3.17189761   +0.12416926   +2.17373067
 H   +2.57173273   -0.82044011   +0.80693411
 C   -1.11827443   -0.13530436   -0.74129464
 C   -2.53181560   -0.10308990   -0.28013221
 C   -2.99467941   +1.32326791   +0.02497546
 C   -2.91078137   +2.25135663   -1.16985058
 H   +0.94633433   -0.06470977   -0.51104252
 H   -0.95895134   -0.20719413   -1.80969380
 H   -3.16406700   -0.52733322   -1.05887443
 H   -2.64110801   -0.70073612   +0.62015592
 H   -4.02074982   +1.27468189   +0.38644897
 H   -2.39272509   +1.70750670   +0.84605728
 H   -3.28868971   +3.24079798   -0.92420496
 H   -1.88205810   +2.37112977   -1.50697552
 H   -3.49457855   +1.87334938   -2.00835182
 H   +0.33329785   +1.99268290   +0.07027813
22
 * E =  +9.100 kcal/mol ; (20) 002_179_248_068
 C   +0.00000000   +0.00000000   +0.00000000
 C   +0.00000000   +0.00000000   +1.48252842
 O   +1.18562209   +0.00000000   +2.10379127
 O   -0.99265551   -0.02535518   +2.15531335
 C   +2.41009077   +0.03927222   +1.40906366
 H   +2.47034869   +0.90680087   +0.75561679
 H   +3.17520734   +0.11595158   +2.17170111
 H   +2.57250108   -0.87189136   +0.83715296
 C   -1.11589976   -0.01640449   -0.75618517
 C   -2.53468439   +0.14770921   -0.35413142
 C   -3.32145526   -1.15342441   -0.52475977
 C   -2.88771208   -2.23700509   +0.44120838
 H   +0.93811582   -0.18007673   -0.49966730
 H   -0.95475138   -0.14330006   -1.82094667
 H   -2.61031099   +0.49198339   +0.67042808
 H   -2.97240975   +0.90509565   -1.00702583
 H   -4.37702863   -0.92975820   -0.37761804
 H   -3.22370181   -1.50665846   -1.55270916
 H   -3.46820181   -3.14518375   +0.29620800
 H   -1.83700640   -2.48849228   +0.30746483
 H   -3.01054006   -1.91069207   +1.47063709
 H   +0.55495139   +1.92199683   +0.04294844
22
 * E =  +9.317 kcal/mol ; (21) 001_180_270_300
 C   +0.00000000   +0.00000000   +0.00000000
 C   +0.00000000   +0.00000000   +1.48105216
 O   +1.18149898   +0.00000000   +2.10897786
 O   -0.99921632   -0.02123561   +2.14515829
 C   +2.40742849   +0.02967070   +1.41615943
 H   +2.47491101   +0.89650762   +0.76248948
 H   +3.17225341   +0.10062174   +2.17958478
 H   +2.56328692   -0.88279898   +0.84450027
 C   -1.12668883   +0.00233930   -0.74122508
 C   -2.53065412   +0.17447485   -0.28253910
 C   -3.19523983   -1.15570061   +0.07701870
 C   -3.26730096   -2.13072682   -1.08096784
 H   +0.93270750   -0.18465061   -0.50798148
 H   -0.98047319   -0.11195599   -1.80792120
 H   -2.56016155   +0.82255086   +0.58727465
 H   -3.09735895   +0.64615828   -1.08568830
 H   -2.65258165   -1.59210883   +0.91252203
 H   -4.19975230   -0.93920048   +0.43775594
 H   -3.78893454   -3.04062403   -0.79438269
 H   -3.79830781   -1.69983374   -1.92902074
 H   -2.27496194   -2.41953367   -1.42336712
 H   +0.56688043   +1.92173048   +0.04888961
