22
 * E =  +0.000 kcal/mol ; (1) 180_177_207_185
 C   +0.00000000   +0.00000000   +0.00000000
 O   +0.00000000   +0.00000000   +1.41438083
 C   +1.20667780   +0.00000000   +1.98521803
 C   +1.08538861   +0.00918027   +3.44497473
 C   +2.11457066   -0.04284384   +4.29911260
 C   +3.54526365   -0.08953418   +3.99954371
 C   +4.40533276   -0.76787123   +5.03859034
 C   +5.88386066   -0.67028550   +4.72418773
 O   +2.22598635   -0.00441075   +1.34042191
 H   +6.10953252   -1.12995786   +3.76418512
 H   +0.49536544   -0.88840693   -0.37975541
 H   +6.48176229   -1.17020421   +5.48176933
 H   +6.20469746   +0.36834972   +4.67602585
 H   +4.11321578   -1.81765427   +5.10576580
 H   +4.20204518   -0.33263607   +6.01814604
 H   +3.91759780   +1.07643939   +3.98967709
 H   +3.75987607   -0.39374707   +2.98157088
 H   +1.86181549   -0.02386220   +5.35328782
 H   +0.07639905   +0.05241896   +3.82298217
 H   -1.04079616   +0.01183854   -0.29655124
 H   +0.51620193   +0.87668154   -0.37920453
 H   +4.34403820   +2.06144428   +4.01058882
22
 * E =  +0.045 kcal/mol ; (2) 180_177_207_071
 C   +0.00000000   +0.00000000   +0.00000000
 O   +0.00000000   +0.00000000   +1.41438973
 C   +1.20640886   +0.00000000   +1.98565887
 C   +1.08471786   +0.00976090   +3.44531938
 C   +2.11459300   -0.04204291   +4.29885750
 C   +3.54673994   -0.08285334   +4.00133033
 C   +4.40142219   -0.75676309   +5.04811389
 C   +4.18386285   -2.25875452   +5.08887582
 O   +2.22624699   -0.00470955   +1.34172508
 H   +3.14898629   -2.50156174   +5.32295431
 H   +0.49406044   -0.88911230   -0.37980564
 H   +4.81440905   -2.72679699   +5.84119569
 H   +4.41715264   -2.71147320   +4.12742743
 H   +4.18552060   -0.32525715   +6.02654019
 H   +5.44859673   -0.54277841   +4.84069129
 H   +3.91337067   +1.08004695   +3.97805824
 H   +3.76199615   -0.39920464   +2.98715936
 H   +1.86237933   -0.02235247   +5.35364880
 H   +0.07585367   +0.05412936   +3.82358994
 H   -1.04079057   +0.01320159   -0.29653183
 H   +0.51735299   +0.87599477   -0.37920076
 H   +4.36611858   +2.05649846   +3.97326977
22
 * E =  +0.660 kcal/mol ; (3) 180_177_204_301
 C   +0.00000000   +0.00000000   +0.00000000
 O   +0.00000000   +0.00000000   +1.41455543
 C   +1.20838492   +0.00000000   +1.98209986
 C   +1.09642732   +0.00169449   +3.44186530
 C   +2.13416137   -0.05907352   +4.28650434
 C   +3.55920619   -0.11752216   +3.95923589
 C   +4.47152618   -0.73063348   +4.99914605
 C   +4.45322798   -0.03145647   +6.34490007
 O   +2.22569696   +0.00061868   +1.33366382
 H   +4.69675377   +1.02386064   +6.23531899
 H   +0.49784438   -0.88700812   -0.37970550
 H   +5.18234712   -0.47290005   +7.01948007
 H   +3.48386336   -0.09875233   +6.83360512
 H   +5.48556232   -0.71578607   +4.60275656
 H   +4.21218443   -1.78379969   +5.12267439
 H   +3.93083079   +1.03916653   +3.85950539
 H   +3.73951427   -0.48017766   +2.95423583
 H   +1.88639566   -0.03859677   +5.34017586
 H   +0.09073349   +0.04657884   +3.82839400
 H   -1.04087538   +0.00888975   -0.29649916
 H   +0.51362743   +0.87809918   -0.37934803
 H   +4.39865706   +2.01115965   +3.78611644
22
 * E =  +1.687 kcal/mol ; (4) 181_355_200_184
 C   +0.00000000   +0.00000000   +0.00000000
 O   +0.00000000   +0.00000000   +1.41639105
 C   +1.20841059   +0.00000000   +1.98068939
 C   +1.19899853   -0.01560538   +3.44636764
 C   +0.15316910   +0.06653165   +4.27782477
 C   -1.27622933   +0.19057018   +3.98322439
 C   -2.12378958   +0.72890975   +5.11030590
 C   -3.60107187   +0.73789672   +4.77627450
 O   +2.22412823   +0.00072757   +1.33233053
 H   -3.80049026   +1.35522325   +3.90247052
 H   +0.50891632   -0.88118105   -0.37763541
 H   -4.18953544   +1.13077327   +5.60117584
 H   -3.95846860   -0.26675472   +4.55949391
 H   -1.79409010   +1.74279763   +5.34582682
 H   -1.94825106   +0.13621416   +6.00893074
 H   -1.68317452   -0.94750450   +3.78412312
 H   -1.48511840   +0.65611064   +3.02693663
 H   +0.39403242   +0.01015616   +5.33355055
 H   +2.19200137   -0.10445082   +3.85725211
 H   -1.04122315   -0.00541541   -0.29573417
 H   +0.50210421   +0.88425200   -0.37980142
 H   -2.13251277   -1.90761512   +3.63520941
22
 * E =  +1.709 kcal/mol ; (5) 180_355_203_070
 C   +0.00000000   +0.00000000   +0.00000000
 O   +0.00000000   +0.00000000   +1.41636917
 C   +1.20785231   +0.00000000   +1.98165265
 C   +1.19922929   -0.00851177   +3.44767202
 C   +0.15549365   +0.07827587   +4.28165379
 C   -1.27733241   +0.18726530   +3.99620990
 C   -2.10374280   +0.79858881   +5.10244044
 C   -1.83195446   +2.28260860   +5.27192783
 O   +2.22388769   -0.00270321   +1.33379245
 H   -0.78761848   +2.46774266   +5.51612786
 H   +0.50749319   -0.88196096   -0.37774390
 H   -2.44023431   +2.70481181   +6.06827542
 H   -2.05558226   +2.82664322   +4.35643031
 H   -1.89963375   +0.27617639   +6.03784542
 H   -3.15890974   +0.64062777   +4.88517265
 H   -1.68637202   -0.95600342   +3.86970794
 H   -1.49451563   +0.60172728   +3.01876542
 H   +0.40081483   +0.03344954   +5.33746111
 H   +2.19330207   -0.09276335   +3.85710196
 H   -1.04121597   -0.00359312   -0.29575688
 H   +0.50365195   +0.88343452   -0.37966306
 H   -2.16939988   -1.90963269   +3.77015203
22
 * E =  +2.244 kcal/mol ; (6) 181_356_191_298
 C   +0.00000000   +0.00000000   +0.00000000
 O   +0.00000000   +0.00000000   +1.41611849
 C   +1.20811260   +0.00000000   +1.98151946
 C   +1.18918673   -0.02207226   +3.44645217
 C   +0.12864405   +0.03107062   +4.26194576
 C   -1.29515027   +0.14362343   +3.93034637
 C   -2.22572461   +0.44612333   +5.08255745
 C   -2.24276621   -0.62130866   +6.15996234
 O   +2.22526040   +0.00606169   +1.33548918
 H   -2.53584704   -1.58344681   +5.74438992
 H   +0.51030760   -0.88048958   -0.37751058
 H   -2.94831786   -0.36809940   +6.94703013
 H   -1.26901662   -0.74866705   +6.62788593
 H   -3.23166623   +0.57052205   +4.68507752
 H   -1.95152321   +1.40990175   +5.51683480
 H   -1.64720796   -0.94822149   +3.49821831
 H   -1.47530706   +0.76245486   +3.05893977
 H   +0.35606404   -0.03494561   +5.31901645
 H   +2.17864508   -0.09532618   +3.86855840
 H   -1.04113826   -0.00711571   -0.29590193
 H   +0.50089024   +0.88496924   -0.37982923
 H   -2.05932875   -1.85895919   +3.13319951
22
 * E =  +3.097 kcal/mol ; (7) 182_178_063_184
 C   +0.00000000   +0.00000000   +0.00000000
 O   +0.00000000   +0.00000000   +1.41421296
 C   +1.20603234   +0.00000000   +1.98652700
 C   +1.08096520   -0.03923453   +3.44510577
 C   +2.09809095   -0.07966627   +4.31465778
 C   +3.54361325   -0.02908325   +4.06597625
 C   +4.13370795   +1.21713595   +3.44710002
 C   +5.61413571   +1.06633661   +3.16347094
 O   +2.22685357   +0.01117838   +1.34581404
 H   +6.16996088   +0.82518091   +4.06840153
 H   +0.51143880   -0.87951599   -0.37917270
 H   +6.02780586   +1.98475982   +2.75496584
 H   +5.78988008   +0.27148799   +2.44207692
 H   +3.97345751   +2.04738628   +4.13857615
 H   +3.59945178   +1.45469470   +2.53348242
 H   +3.82059399   -0.96648617   +3.26139394
 H   +4.09995985   -0.32827677   +4.95147248
 H   +1.80961630   -0.19295731   +5.35283263
 H   +0.06871735   -0.08546561   +3.81425293
 H   -1.04080499   -0.00640907   -0.29668352
 H   +0.50008381   +0.88570600   -0.38003031
 H   +4.11685679   -1.70278343   +2.65877579
22
 * E =  +3.468 kcal/mol ; (8) 181_181_062_067
 C   +0.00000000   +0.00000000   +0.00000000
 O   +0.00000000   +0.00000000   +1.41459155
 C   +1.20885484   +0.00000000   +1.98129132
 C   +1.09669750   -0.01783946   +3.44093409
 C   +2.12274530   +0.00363176   +4.30127649
 C   +3.56452705   +0.11140394   +4.04037142
 C   +4.09483062   +1.35408893   +3.36067517
 C   +3.95918826   +2.58551572   +4.23954375
 O   +2.22595843   -0.00371355   +1.33458913
 H   +2.91529889   +2.79328396   +4.46614154
 H   +0.51049505   -0.87989973   -0.37934000
 H   +4.37066644   +3.46178894   +3.74373997
 H   +4.48692616   +2.46077734   +5.18376594
 H   +3.58069026   +1.50003405   +2.41657879
 H   +5.14494069   +1.18704023   +3.12344045
 H   +3.88405671   -0.84395628   +3.28783677
 H   +4.13199116   -0.11211497   +4.94090987
 H   +1.84665174   -0.10064317   +5.34359601
 H   +0.09032348   -0.09518475   +3.82097244
 H   -1.04083521   -0.00484923   -0.29665386
 H   +0.50132248   +0.88516903   -0.37954553
 H   +4.24902284   -1.58141117   +2.71370157
22
 * E =  +4.595 kcal/mol ; (9) 178_008_062_183
 C   +0.00000000   +0.00000000   +0.00000000
 O   +0.00000000   +0.00000000   +1.41568248
 C   +1.20376289   +0.00000000   +1.98405047
 C   +1.18452771   +0.04199998   +3.45021498
 C   +0.14758798   -0.05731602   +4.29108109
 C   -1.27642828   -0.31341052   +4.03557331
 C   -1.67424715   -1.62635385   +3.40063982
 C   -3.16542462   -1.71231845   +3.14698875
 O   +2.22424879   -0.00548802   +1.34327563
 H   -3.73083452   -1.59012829   +4.06929085
 H   +0.49775786   -0.88675501   -0.38025993
 H   -3.43407921   -2.67473474   +2.71917930
 H   -3.48885665   -0.93645017   +2.45631611
 H   -1.36815155   -2.43284875   +4.07029399
 H   -1.12435899   -1.76569242   +2.47500527
 H   -1.70898203   +0.58416017   +3.25075397
 H   -1.86865255   -0.11771603   +4.92649525
 H   +0.40196595   +0.07999012   +5.33544588
 H   +2.17037889   +0.19845508   +3.85869643
 H   -1.04121101   +0.01131903   -0.29539232
 H   +0.51344495   +0.87872774   -0.37747934
 H   -2.14279553   +1.25751039   +2.66299206
22
 * E =  +4.847 kcal/mol ; (10) 177_006_064_069
 C   +0.00000000   +0.00000000   +0.00000000
 O   +0.00000000   +0.00000000   +1.41561009
 C   +1.20280448   +0.00000000   +1.98519702
 C   +1.18200074   +0.06521430   +3.45077768
 C   +0.13970557   +0.01900122   +4.28992343
 C   -1.29247819   -0.19114395   +4.03211607
 C   -1.73299016   -1.51470785   +3.44851553
 C   -1.57547515   -2.65400572   +4.44091972
 O   +2.22439112   -0.02117616   +1.34643296
 H   -0.53421196   -2.78121530   +4.72956953
 H   +0.49627135   -0.88750240   -0.38034337
 H   -1.91733310   -3.59254641   +4.01077156
 H   -2.15353993   -2.47370790   +5.34551759
 H   -1.16514520   -1.72343965   +2.54758907
 H   -2.77800453   -1.42850913   +3.15196651
 H   -1.68957267   +0.68946840   +3.21657292
 H   -1.87864392   +0.05604929   +4.91426894
 H   +0.39621194   +0.17177166   +5.33159774
 H   +2.17120786   +0.19975929   +3.85898600
 H   -1.04121929   +0.01310904   -0.29516145
 H   +0.51498304   +0.87804103   -0.37713870
 H   -2.12838007   +1.34193941   +2.60940415
22
 * E =  +8.916 kcal/mol ; (11) 353_167_202_185
 C   +0.00000000   +0.00000000   +0.00000000
 O   +0.00000000   +0.00000000   +1.40798921
 C   +1.13898398   +0.00000000   +2.11576345
 C   +2.40487332   -0.14745355   +1.38300279
 C   +3.60547095   +0.09027575   +1.93056033
 C   +3.92040242   +0.52456199   +3.28969624
 C   +5.26010145   +1.19754831   +3.46458236
 C   +5.56794575   +1.51069327   +4.91426328
 O   +1.06601973   +0.10715882   +3.31062026
 H   +4.81406983   +2.16999679   +5.33939700
 H   +0.34436182   -0.95176342   -0.39951774
 H   +6.53353211   +1.99913827   +5.01573715
 H   +5.58711683   +0.60288514   +5.51373706
 H   +5.27098410   +2.11999886   +2.88046640
 H   +6.04263871   +0.56316034   +3.04565875
 H   +3.97579394   -0.49939040   +3.95462364
 H   +3.09858748   +1.03511809   +3.77978636
 H   +4.46322487   -0.08022201   +1.28934231
 H   +2.37275232   -0.46891620   +0.35517838
 H   -1.03176345   +0.14970955   -0.29367283
 H   +0.60515030   +0.81002628   -0.40042622
 H   +4.10226953   -1.34392921   +4.60720753
22
 * E =  +8.969 kcal/mol ; (12) 354_167_203_071
 C   +0.00000000   +0.00000000   +0.00000000
 O   +0.00000000   +0.00000000   +1.40796006
 C   +1.13808753   +0.00000000   +2.11695985
 C   +2.40597262   -0.13424831   +1.38507491
 C   +3.60376525   +0.10855680   +1.93688656
 C   +3.91581689   +0.52871990   +3.30191980
 C   +5.24667098   +1.22013855   +3.47405017
 C   +5.25966361   +2.60729292   +2.85704148
 O   +1.06281762   +0.09780956   +3.31250951
 H   +5.06330253   +2.56611239   +1.78702320
 H   +0.34935711   -0.94998950   -0.39938530
 H   +6.22242473   +3.09233026   +2.99968696
 H   +4.49656275   +3.23960371   +3.30611450
 H   +6.03439459   +0.61018432   +3.02951937
 H   +5.47356340   +1.28948091   +4.53650989
 H   +3.98034588   -0.49833623   +3.95397239
 H   +3.08927644   +1.02837562   +3.79533868
 H   +4.46442003   -0.05033403   +1.29573468
 H   +2.37792014   -0.44892473   +0.35500334
 H   -1.03255522   +0.14422083   -0.29358495
 H   +0.60074866   +0.81322253   -0.40061855
 H   +4.11399204   -1.32933126   +4.62540779
22
 * E =  +9.540 kcal/mol ; (13) 354_169_196_299
 C   +0.00000000   +0.00000000   +0.00000000
 O   +0.00000000   +0.00000000   +1.40783882
 C   +1.13926510   +0.00000000   +2.11556451
 C   +2.40630035   -0.13665308   +1.38464980
 C   +3.60607939   +0.06185996   +1.95128739
 C   +3.90434920   +0.44786569   +3.32913699
 C   +5.29926222   +0.96637022   +3.59751169
 C   +6.40286961   -0.02953862   +3.29611323
 O   +1.06584984   +0.09970620   +3.31136884
 H   +6.26357195   -0.94409737   +3.86944618
 H   +0.35843101   -0.94637669   -0.39989168
 H   +7.37640812   +0.38016540   +3.55270276
 H   +6.43687784   -0.30266346   +2.24350869
 H   +5.35470345   +1.25521587   +4.64565060
 H   +5.45655500   +1.88248179   +3.02456696
 H   +3.79492511   -0.56736713   +3.99688151
 H   +3.11810435   +1.04793144   +3.77278461
 H   +4.46235603   -0.10219411   +1.30852874
 H   +2.37811902   -0.41782658   +0.34512773
 H   -1.03389056   +0.13451381   -0.29356122
 H   +0.59261083   +0.81928173   -0.40050991
 H   +3.77867205   -1.39605193   +4.68197704
22
 * E = +11.969 kcal/mol ; (14) 010_191_057_183
 C   +0.00000000   +0.00000000   +0.00000000
 O   +0.00000000   +0.00000000   +1.40821781
 C   +1.14008638   +0.00000000   +2.11439238
 C   +2.39579446   +0.22984627   +1.38479295
 C   +3.62172089   +0.05804984   +1.90144818
 C   +4.02810865   -0.47015481   +3.20708388
 C   +3.58721865   -1.85874013   +3.61279571
 C   +4.03519453   -2.20747578   +5.01727288
 O   +1.07297694   -0.14685602   +3.30452097
 H   +5.11711084   -2.13614221   +5.11911569
 H   +0.65004947   -0.77427693   -0.40057797
 H   +3.74335276   -3.22148158   +5.27792027
 H   +3.58592275   -1.53461808   +5.74419653
 H   +4.01343078   -2.57042016   +2.90259692
 H   +2.50816380   -1.93744859   +3.53722064
 H   +3.55191017   +0.29319306   +4.07799779
 H   +5.09797683   -0.34354263   +3.35591528
 H   +4.43505052   +0.37834931   +1.26132928
 H   +2.33129147   +0.62756413   +0.38504413
 H   -1.02169609   -0.20673141   -0.29444612
 H   +0.29113779   +0.96977838   -0.39865274
 H   +3.22941397   +0.85830757   +4.85538891
22
 * E = +12.389 kcal/mol ; (15) 009_195_056_067
 C   +0.00000000   +0.00000000   +0.00000000
 O   +0.00000000   +0.00000000   +1.40834104
 C   +1.14124103   +0.00000000   +2.11235628
 C   +2.39851119   +0.20325839   +1.37681090
 C   +3.62066522   -0.04220206   +1.87173547
 C   +4.01547599   -0.64142764   +3.15164854
 C   +3.49096488   -2.01174725   +3.52005632
 C   +4.05052223   -3.09756712   +2.61762188
 O   +1.07662392   -0.12835765   +3.30452458
 H   +3.76032110   -2.93618888   +1.58118732
 H   +0.65190986   -0.77259740   -0.40073447
 H   +3.68179556   -4.07635124   +2.91560726
 H   +5.13821968   -3.12677145   +2.65786341
 H   +2.40677581   -2.01290930   +3.49118867
 H   +3.77300603   -2.21272358   +4.55275448
 H   +3.61685233   +0.11871257   +4.05450338
 H   +5.09514120   -0.59546620   +3.27336804
 H   +4.44059566   +0.26744458   +1.23509270
 H   +2.33914921   +0.64086819   +0.39319700
 H   -1.02125393   -0.20850293   -0.29469839
 H   +0.28943150   +0.97053191   -0.39804097
 H   +3.35645107   +0.65145982   +4.88246306
