22
 * E =  +0.000 kcal/mol ; (1) 180_185_279_182
 C   +0.00000000   +0.00000000   +0.00000000
 C   +0.00000000   +0.00000000   +1.46293208
 O   +1.24795025   +0.00000000   +1.93672585
 O   -0.96640308   -0.00810646   +2.18516592
 C   +1.35841830   -0.01078163   +3.34686331
 H   +2.41924124   -0.01829021   +3.56114460
 H   +0.88918289   +0.87153571   +3.77122476
 H   +0.87868232   -0.89364680   +3.75835821
 C   -1.10552388   +0.10158454   -0.75926010
 C   -2.52533199   +0.09784783   -0.29825432
 C   -3.02120955   -1.32470297   -0.05578067
 C   -4.47688144   -1.35246137   +0.36118364
 H   +0.97110290   -0.05589602   -0.46562101
 H   -0.95219489   +0.02645006   -1.82882160
 H   -2.62735786   +0.66491223   +0.62181750
 H   -3.14460214   +0.57114332   -1.05898622
 H   -2.88227972   -1.92027890   -0.95879009
 H   -2.40404106   -1.77446073   +0.71979321
 H   -4.81797939   -2.37024855   +0.53483409
 H   -4.62639820   -0.79027564   +1.28070252
 H   -5.11569516   -0.91449659   -0.40413000
 H   -1.06309552   +2.11696512   -1.16314502
22
 * E =  +0.201 kcal/mol ; (2) 180_182_174_179
 C   +0.00000000   +0.00000000   +0.00000000
 C   +0.00000000   +0.00000000   +1.46093428
 O   +1.24529859   +0.00000000   +1.94239504
 O   -0.97249413   -0.00631480   +2.17505864
 C   +1.34585171   -0.01020261   +3.35316798
 H   +2.40516051   -0.01335481   +3.57515470
 H   +0.86988825   +0.87014636   +3.77422332
 H   +0.86691664   -0.89496799   +3.76153802
 C   -1.12007300   +0.04605759   -0.74263939
 C   -2.53353379   +0.00620293   -0.26165194
 C   -3.53844001   +0.22780115   -1.37567764
 C   -4.96912904   +0.17010918   -0.88317812
 H   +0.96740227   -0.01774462   -0.47576850
 H   -0.98400794   -0.02591769   -1.81579207
 H   -2.70397113   -0.96390454   +0.21038630
 H   -2.67368047   +0.72904056   +0.53880503
 H   -3.34818182   +1.19618230   -1.84101800
 H   -3.38732486   -0.52111471   -2.15476865
 H   -5.67566659   +0.33190736   -1.69345773
 H   -5.19144666   -0.79753874   -0.43676351
 H   -5.15237243   +0.92993141   -0.12582241
 H   -1.14209914   +2.05559260   -1.18801955
22
 * E =  +0.479 kcal/mol ; (3) 180_182_264_069
 C   +0.00000000   +0.00000000   +0.00000000
 C   +0.00000000   +0.00000000   +1.46422062
 O   +1.25180142   +0.00000000   +1.92951324
 O   -0.95941816   -0.00296295   +2.19479007
 C   +1.37188036   -0.00433231   +3.33882412
 H   +2.43417832   -0.00344267   +3.54586479
 H   +0.89888279   +0.87619774   +3.76270122
 H   +0.90165045   -0.88907248   +3.75721220
 C   -1.09892679   +0.04208167   -0.77537452
 C   -2.52975009   -0.06219791   -0.36512312
 C   -3.04590765   -1.49400290   -0.52248011
 C   -2.43599879   -2.47134092   +0.46099306
 H   +0.97670587   +0.00245271   -0.45774820
 H   -0.92189378   -0.01523597   -1.84337905
 H   -2.65865828   +0.26371444   +0.66100199
 H   -3.11679602   +0.59197466   -1.00753312
 H   -4.12703536   -1.47230391   -0.39105601
 H   -2.87050455   -1.83412621   -1.54453087
 H   -2.84147823   -3.47040836   +0.31817987
 H   -1.35593888   -2.53275162   +0.34238666
 H   -2.63332249   -2.16400549   +1.48495040
 H   -1.12770479   +2.04482786   -1.13101236
22
 * E =  +0.614 kcal/mol ; (4) 180_185_279_300
 C   +0.00000000   +0.00000000   +0.00000000
 C   +0.00000000   +0.00000000   +1.46311582
 O   +1.24820252   +0.00000000   +1.93658233
 O   -0.96608415   -0.00527328   +2.18554708
 C   +1.35860790   -0.00557047   +3.34675506
 H   +2.41941706   -0.01079565   +3.56116856
 H   +0.88796496   +0.87760747   +3.76776849
 H   +0.88003797   -0.88755730   +3.76147625
 C   -1.10465279   +0.10348267   -0.76050361
 C   -2.52636938   +0.10485824   -0.29852324
 C   -3.03770399   -1.31020261   -0.03457564
 C   -2.99821686   -2.20965706   -1.25388286
 H   +0.97173494   -0.05216197   -0.46493485
 H   -0.94662207   +0.03635122   -1.82954220
 H   -2.62112943   +0.68656372   +0.61228389
 H   -3.14086492   +0.57204649   -1.06710573
 H   -2.45116360   -1.74153316   +0.77445516
 H   -4.06082134   -1.23398865   +0.33147887
 H   -3.41611661   -3.18871695   -1.03249735
 H   -3.57187935   -1.78466887   -2.07667616
 H   -1.97913504   -2.36319729   -1.60444324
 H   -1.06653068   +2.11706784   -1.15912716
22
 * E =  +0.656 kcal/mol ; (5) 180_181_178_069
 C   +0.00000000   +0.00000000   +0.00000000
 C   +0.00000000   +0.00000000   +1.46045329
 O   +1.24475111   +0.00000000   +1.94325060
 O   -0.97359199   -0.00402108   +2.17340113
 C   +1.34387186   -0.00653592   +3.35412305
 H   +2.40296131   -0.00836504   +3.57719928
 H   +0.86682928   +0.87455798   +3.77241967
 H   +0.86526650   -0.89059871   +3.76439781
 C   -1.12314379   +0.02410145   -0.74019131
 C   -2.53384091   -0.03369847   -0.24804698
 C   -3.55544864   +0.05559374   -1.36842002
 C   -3.57269679   -1.16500950   -2.26799502
 H   +0.96696601   +0.00203296   -0.47699537
 H   -0.98570642   -0.04564417   -1.81282057
 H   -2.66530760   -0.96303205   +0.30943900
 H   -2.69018940   +0.75039697   +0.48852745
 H   -4.54243251   +0.19056035   -0.92908332
 H   -3.36123936   +0.95207364   -1.95986389
 H   -4.31028182   -1.06294599   -3.06027548
 H   -2.60803138   -1.33434336   -2.74374691
 H   -3.81652438   -2.06123942   -1.70007108
 H   -1.18111889   +2.00987942   -1.21371314
22
 * E =  +0.953 kcal/mol ; (6) 180_179_188_293
 C   +0.00000000   +0.00000000   +0.00000000
 C   +0.00000000   +0.00000000   +1.45994680
 O   +1.24452703   +0.00000000   +1.94337011
 O   -0.97430759   -0.00057147   +2.17206299
 C   +1.34279572   -0.00169715   +3.35429727
 H   +2.40174788   +0.00036355   +3.57802836
 H   +0.86267233   +0.87925877   +3.76934981
 H   +0.86673549   -0.88590436   +3.76721798
 C   -1.12530728   -0.01004836   -0.73881490
 C   -2.52839555   -0.16536018   -0.24240278
 C   -3.54408499   -0.33398208   -1.35928471
 C   -3.70796440   +0.89390150   -2.23285242
 H   +0.96556427   +0.03871385   -0.47815815
 H   -0.98894467   -0.06462165   -1.81295045
 H   -2.55487921   -1.02421748   +0.42720542
 H   -2.78920916   +0.68122590   +0.39145979
 H   -3.26358910   -1.19001808   -1.97551441
 H   -4.50431972   -0.58702537   -0.91222300
 H   -4.47630404   +0.73980212   -2.98691053
 H   -3.99236753   +1.75998018   -1.63758210
 H   -2.78649587   +1.14809950   -2.75378792
 H   -1.19185887   +1.98452578   -1.09904925
22
 * E =  +1.141 kcal/mol ; (7) 180_176_085_185
 C   +0.00000000   +0.00000000   +0.00000000
 C   +0.00000000   +0.00000000   +1.46105566
 O   +1.24706740   +0.00000000   +1.93734956
 O   -0.96877844   -0.00164352   +2.18099942
 C   +1.35468042   -0.00309781   +3.34765362
 H   +2.41508902   +0.00020830   +3.56410981
 H   +0.87611519   +0.87684865   +3.76665708
 H   +0.88267168   -0.88841220   +3.76272168
 C   -1.11197049   -0.07759748   -0.75759692
 C   -2.51164885   -0.29224897   -0.27493684
 C   -3.24250962   +0.97439564   +0.15733948
 C   -4.60279850   +0.66146158   +0.74388903
 H   +0.96776687   +0.08238491   -0.46859223
 H   -0.95006561   -0.14419051   -1.82567782
 H   -3.07990542   -0.77805685   -1.06714448
 H   -2.48429232   -0.96830219   +0.57692398
 H   -2.63063072   +1.49113350   +0.89361402
 H   -3.34817995   +1.64137283   -0.69831543
 H   -5.12576105   +1.57031211   +1.03157631
 H   -5.23022877   +0.13054858   +0.02924706
 H   -4.50634881   +0.03839117   +1.63077437
 H   -1.18060645   +1.87238268   -1.30724447
22
 * E =  +1.681 kcal/mol ; (8) 180_006_277_183
 C   +0.00000000   +0.00000000   +0.00000000
 C   +0.00000000   +0.00000000   +1.46478067
 O   +1.21012093   +0.00000000   +2.02601216
 O   -1.01356743   +0.01056114   +2.11704314
 C   +1.21216879   -0.00102169   +3.44239718
 H   +2.25382753   -0.00819746   +3.73670669
 H   +0.71331292   +0.88495685   +3.82255401
 H   +0.70111317   -0.88020260   +3.82189099
 C   +1.04247028   -0.10202336   -0.84388996
 C   +2.50523059   -0.09869047   -0.54121087
 C   +3.03318756   +1.32429882   -0.38826877
 C   +4.52962741   +1.35387927   -0.15602211
 H   -0.99847837   +0.05998001   -0.40324179
 H   +0.79013530   -0.02189221   -1.89445323
 H   +2.71547916   -0.65759886   +0.36464046
 H   +3.03048820   -0.58814949   -1.36029536
 H   +2.78599230   +1.90249595   -1.27909332
 H   +2.51511359   +1.79756123   +0.44418077
 H   +4.89180442   +2.37273965   -0.04223430
 H   +4.79555829   +0.80413778   +0.74499472
 H   +5.06670515   +0.90219498   -0.98829417
 H   +0.96484834   -2.11723212   -1.24686793
22
 * E =  +1.706 kcal/mol ; (9) 180_002_176_180
 C   +0.00000000   +0.00000000   +0.00000000
 C   +0.00000000   +0.00000000   +1.46281697
 O   +1.21642938   +0.00000000   +2.01057922
 O   -1.00831704   +0.00674638   +2.12335698
 C   +1.23430134   +0.00278579   +3.42656730
 H   +2.27913070   +0.00037357   +3.70947732
 H   +0.73603187   +0.88766952   +3.81004442
 H   +0.73079968   -0.87737560   +3.81399762
 C   +1.06144835   -0.04352925   -0.82450699
 C   +2.51900263   +0.00276730   -0.49063869
 C   +3.40019110   -0.17091256   -1.71293319
 C   +4.87520252   -0.11810792   -1.37515411
 H   -0.99472161   +0.01668766   -0.41569233
 H   +0.82989142   +0.02871887   -1.88136034
 H   +2.73166200   +0.96075149   -0.01216377
 H   +2.75535189   -0.74844699   +0.25941572
 H   +3.16507051   -1.12370090   -2.18948097
 H   +3.16210932   +0.60386358   -2.44312490
 H   +5.49099696   -0.24280037   -2.26225419
 H   +5.13979132   +0.83451625   -0.91933846
 H   +5.14396520   -0.90460049   -0.67225815
 H   +1.05933216   -2.05189230   -1.27464081
22
 * E =  +1.736 kcal/mol ; (10) 180_178_106_289
 C   +0.00000000   +0.00000000   +0.00000000
 C   +0.00000000   +0.00000000   +1.46301794
 O   +1.25255406   +0.00000000   +1.92730148
 O   -0.95885522   -0.00094599   +2.19492898
 C   +1.37393678   -0.00120454   +3.33635909
 H   +2.43645558   +0.00051669   +3.54233675
 H   +0.90120932   +0.88030341   +3.75870296
 H   +0.90437093   -0.88495505   +3.75748763
 C   -1.09791567   -0.04774018   -0.78163746
 C   -2.51824854   -0.24678062   -0.35874122
 C   -3.38854957   +1.00791226   -0.42090791
 C   -3.04352779   +2.02478728   +0.64685168
 H   +0.97540661   +0.06163878   -0.45642645
 H   -0.91130297   -0.12581609   -1.84580836
 H   -2.94356776   -0.99654746   -1.02584444
 H   -2.54530630   -0.64190850   +0.65147948
 H   -3.30929861   +1.45799531   -1.41156590
 H   -4.42665762   +0.69827338   -0.30571356
 H   -3.66644403   +2.91178630   +0.55627182
 H   -3.18001817   +1.60449079   +1.63982480
 H   -2.00415277   +2.34058954   +0.57170663
 H   -1.04262951   +1.85167298   -1.38881262
22
 * E =  +2.176 kcal/mol ; (11) 180_359_264_070
 C   +0.00000000   +0.00000000   +0.00000000
 C   +0.00000000   +0.00000000   +1.46524640
 O   +1.20555171   +0.00000000   +2.03333977
 O   -1.01756589   -0.00076266   +2.11188636
 C   +1.20014322   -0.00351208   +3.44956428
 H   +2.24041591   -0.00710353   +3.74905056
 H   +0.69547954   +0.87936092   +3.82915381
 H   +0.69173064   -0.88605349   +3.82478403
 C   +1.03887390   +0.02614574   -0.85527012
 C   +2.49533836   +0.23428863   -0.59958663
 C   +2.88341108   +1.69991864   -0.80559138
 C   +2.33768772   +2.62875294   +0.25890862
 H   -1.00117454   -0.05631484   -0.39770369
 H   +0.76315088   +0.06880415   -1.90308903
 H   +2.77001573   -0.08357209   +0.39974807
 H   +3.05232922   -0.37558413   -1.30869100
 H   +3.97102217   +1.75983123   -0.81868698
 H   +2.54913478   +2.02738581   -1.79112658
 H   +2.62517651   +3.65893941   +0.06244293
 H   +1.25102894   +2.59080651   +0.30208408
 H   +2.71470856   +2.35559641   +1.24196306
 H   +1.18222844   -1.97630511   -1.21164615
22
 * E =  +2.193 kcal/mol ; (12) 180_001_180_069
 C   +0.00000000   +0.00000000   +0.00000000
 C   +0.00000000   +0.00000000   +1.46259676
 O   +1.21650375   +0.00000000   +2.01071995
 O   -1.00837966   +0.00369669   +2.12318581
 C   +1.23333736   +0.00140798   +3.42671560
 H   +2.27794095   -0.00136708   +3.71045410
 H   +0.73474756   +0.88583479   +3.81085916
 H   +0.72951752   -0.87915012   +3.81281625
 C   +1.06299558   -0.01438336   -0.82438092
 C   +2.51924820   +0.06141441   -0.48411943
 C   +3.41074386   +0.01962906   -1.71360133
 C   +3.30758990   +1.26311686   -2.57509394
 H   -0.99483987   -0.01033484   -0.41568563
 H   +0.82707595   +0.05224901   -1.88018931
 H   +2.69840473   +0.98116994   +0.07492039
 H   +2.77301571   -0.74304514   +0.20112436
 H   +4.44298308   -0.10848015   -1.39161872
 H   +3.16436246   -0.86493988   -2.30332249
 H   +3.95232875   +1.19439460   -3.44777266
 H   +2.29288667   +1.42713269   -2.93388577
 H   +3.60087836   +2.14885196   -2.01408805
 H   +1.10600226   -1.99834781   -1.30313634
22
 * E =  +2.227 kcal/mol ; (13) 180_005_279_300
 C   +0.00000000   +0.00000000   +0.00000000
 C   +0.00000000   +0.00000000   +1.46481800
 O   +1.20972996   +0.00000000   +2.02631379
 O   -1.01406523   +0.00828228   +2.11649481
 C   +1.21104935   -0.00045286   +3.44269679
 H   +2.25254688   -0.00307775   +3.73751031
 H   +0.70801711   +0.88349422   +3.82212649
 H   +0.70345562   -0.88161717   +3.82228946
 C   +1.04301618   -0.08474993   -0.84544260
 C   +2.50743795   -0.06590738   -0.54042617
 C   +3.02677458   +1.35423219   -0.32502743
 C   +2.84634650   +2.25639026   -1.52955705
 H   -0.99969423   +0.04381236   -0.40251711
 H   +0.78470293   -0.01295043   -1.89469408
 H   +2.71865747   -0.66240298   +0.33987163
 H   +3.03774710   -0.51560188   -1.37895928
 H   +2.52195758   +1.77955007   +0.54071210
 H   +4.08441893   +1.29176035   -0.07070292
 H   +3.27119053   +3.24071807   -1.34908165
 H   +3.33661195   +1.84148313   -2.40922302
 H   +1.79400339   +2.39506966   -1.76990399
 H   +1.00524641   -2.09799425   -1.25475017
22
 * E =  +2.475 kcal/mol ; (14) 180_358_189_293
 C   +0.00000000   +0.00000000   +0.00000000
 C   +0.00000000   +0.00000000   +1.46222729
 O   +1.21726807   +0.00000000   +2.00874665
 O   -1.00779878   -0.00307624   +2.12378048
 C   +1.23625732   -0.00590917   +3.42469720
 H   +2.28128661   -0.00492445   +3.70687325
 H   +0.73336651   +0.87356180   +3.81453534
 H   +0.73788097   -0.89143163   +3.80652891
 C   +1.06541273   +0.02813137   -0.82213908
 C   +2.51019761   +0.22294587   -0.47569811
 C   +3.39563552   +0.40403557   -1.69731817
 C   +3.49921408   -0.82951832   -2.57192599
 H   -0.99239239   -0.05900682   -0.41730328
 H   +0.83122685   +0.06983374   -1.88006319
 H   +2.58853497   +1.09474028   +0.17206514
 H   +2.86195659   -0.61246488   +0.12789386
 H   +3.02638787   +1.24465053   -2.28713474
 H   +4.39102390   +0.68825458   -1.35873357
 H   +4.17837645   -0.66336538   -3.40479650
 H   +3.86966413   -1.68067645   -2.00300418
 H   +2.53518060   -1.11450088   -2.98913955
 H   +1.15700836   -1.97250455   -1.16342501
22
 * E =  +2.915 kcal/mol ; (15) 180_352_092_183
 C   +0.00000000   +0.00000000   +0.00000000
 C   +0.00000000   +0.00000000   +1.46329008
 O   +1.21308873   +0.00000000   +2.01922168
 O   -1.01144013   -0.01239439   +2.11914026
 C   +1.22183877   -0.00485091   +3.43553609
 H   +2.26494739   -0.00831260   +3.72486408
 H   +0.72033006   +0.87710040   +3.82153737
 H   +0.71696448   -0.88802584   +3.81409485
 C   +1.04561935   +0.14480434   -0.83826352
 C   +2.46065221   +0.50367055   -0.50487078
 C   +3.38718015   -0.68235584   -0.26397170
 C   +4.77770845   -0.23637506   +0.13712380
 H   -0.98504230   -0.16095458   -0.40862785
 H   +0.79049794   +0.16579445   -1.89023331
 H   +2.85865658   +1.09809811   -1.32697875
 H   +2.47071939   +1.13117050   +0.38216885
 H   +2.95256792   -1.30738094   +0.51396971
 H   +3.43779308   -1.29263341   -1.16539041
 H   +5.43412550   -1.08799183   +0.29823132
 H   +5.22943551   +0.38857942   -0.63164252
 H   +4.75160559   +0.34227461   +1.05891412
 H   +1.22285423   -1.80992270   -1.32092965
22
 * E =  +8.793 kcal/mol ; (16) 009_199_274_182
 C   +0.00000000   +0.00000000   +0.00000000
 C   +0.00000000   +0.00000000   +1.47036115
 O   +1.18564173   +0.00000000   +2.09521156
 O   -0.99807815   -0.02202101   +2.13954959
 C   +2.39267953   +0.17802449   +1.39095646
 H   +3.15466693   +0.32632331   +2.14628548
 H   +2.64566186   -0.70319942   +0.80483667
 H   +2.35461156   +1.05277413   +0.74625473
 C   -1.06438434   +0.36207426   -0.74204772
 C   -2.43187067   +0.71492340   -0.26480828
 C   -3.28885109   -0.53687107   -0.09713789
 C   -4.69825576   -0.19828998   +0.34186122
 H   +0.90313926   -0.28868480   -0.51284942
 H   -0.95555109   +0.24152613   -1.81327509
 H   -2.38282195   +1.23510684   +0.68681357
 H   -2.89903195   +1.37699747   -0.99291236
 H   -3.31612313   -1.09104320   -1.03623129
 H   -2.81234791   -1.17728574   +0.64167392
 H   -5.29918777   -1.09658959   +0.46086206
 H   -4.69025526   +0.32426040   +1.29609702
 H   -5.19702900   +0.44124193   -0.38475835
 H   -0.52063219   +2.28256145   -1.17278726
22
 * E =  +8.960 kcal/mol ; (17) 005_188_173_179
 C   +0.00000000   +0.00000000   +0.00000000
 C   +0.00000000   +0.00000000   +1.46742695
 O   +1.18116080   +0.00000000   +2.10229638
 O   -1.00316426   -0.01284042   +2.13010530
 C   +2.40055456   +0.10359054   +1.40631559
 H   +3.16712405   +0.18057254   +2.16756841
 H   +2.59269120   -0.78058351   +0.80191377
 H   +2.43072882   +0.99324222   +0.78138345
 C   -1.12241705   +0.16530648   -0.72676381
 C   -2.52505400   +0.28771594   -0.23556835
 C   -3.50810632   +0.62515360   -1.33986196
 C   -4.93092831   +0.72847525   -0.83205229
 H   +0.93105086   -0.12481149   -0.52705013
 H   -1.00797505   +0.07264863   -1.80120153
 H   -2.79598882   -0.65790259   +0.23901886
 H   -2.57429598   +1.01593129   +0.57103893
 H   -3.21475925   +1.56723354   -1.80584670
 H   -3.45120650   -0.13406703   -2.12161919
 H   -5.62303076   +0.97105222   -1.63453214
 H   -5.25615077   -0.20879953   -0.38418511
 H   -5.01885179   +1.50218433   -0.07179667
 H   -0.91988645   +2.16092475   -1.19255123
22
 * E =  +9.424 kcal/mol ; (18) 002_184_178_069
 C   +0.00000000   +0.00000000   +0.00000000
 C   +0.00000000   +0.00000000   +1.46681977
 O   +1.18007289   +0.00000000   +2.10392857
 O   -1.00378977   -0.00717786   +2.12913193
 C   +2.40378546   +0.04842608   +1.41007616
 H   +3.17200624   +0.07887690   +2.17293063
 H   +2.55172091   -0.83769544   +0.79635332
 H   +2.48067819   +0.94242942   +0.79516142
 C   -1.13389175   +0.07185754   -0.72544908
 C   -2.54136033   +0.08054193   -0.22858971
 C   -3.56253774   +0.22194351   -1.34382696
 C   -3.64369172   -0.99438976   -2.24571540
 H   +0.93740474   -0.04065285   -0.52872131
 H   -1.00897961   -0.00586596   -1.79948746
 H   -2.71026086   -0.84299300   +0.32846327
 H   -2.65443471   +0.86511890   +0.51542037
 H   -4.53912346   +0.40277791   -0.89812137
 H   -3.32996033   +1.10980972   -1.93456787
 H   -4.38072162   -0.85564058   -3.03287261
 H   -2.69146707   -1.20862628   -2.72870379
 H   -3.92607104   -1.87918403   -1.67784907
 H   -1.10033534   +2.05948418   -1.20741705
22
 * E =  +9.453 kcal/mol ; (19) 008_197_276_300
 C   +0.00000000   +0.00000000   +0.00000000
 C   +0.00000000   +0.00000000   +1.47008644
 O   +1.18543901   +0.00000000   +2.09588166
 O   -0.99782666   -0.01842057   +2.13968523
 C   +2.39574200   +0.16240939   +1.39384138
 H   +3.15874519   +0.29594895   +2.15088147
 H   +2.63644352   -0.71998719   +0.80432945
 H   +2.37221630   +1.04057579   +0.75302037
 C   -1.07425763   +0.32783830   -0.74434214
 C   -2.45585853   +0.63740291   -0.27078149
 C   -3.27645295   -0.63451794   -0.06011141
 C   -3.44324240   -1.46835006   -1.31492848
 H   +0.91308925   -0.25393316   -0.51337812
 H   -0.95159371   +0.21991342   -1.81498233
 H   -2.41796316   +1.18719451   +0.66364073
 H   -2.94556093   +1.26168918   -1.01740905
 H   -2.80415529   -1.21734893   +0.72749055
 H   -4.25525146   -0.33917886   +0.31542324
 H   -4.08109085   -2.32910752   -1.12971229
 H   -3.89684055   -0.88905767   -2.11844040
 H   -2.48816577   -1.84582753   -1.67619445
 H   -0.60499176   +2.27122886   -1.16498550
22
 * E =  +9.573 kcal/mol ; (20) 008_198_259_068
 C   +0.00000000   +0.00000000   +0.00000000
 C   +0.00000000   +0.00000000   +1.47120117
 O   +1.18955714   +0.00000000   +2.09026635
 O   -0.99183832   -0.02038974   +2.14851990
 C   +2.39693703   +0.17531413   +1.38628222
 H   +3.15937369   +0.31738165   +2.14240473
 H   +2.64669288   -0.70471982   +0.79695740
 H   +2.36314937   +1.05287959   +0.74518237
 C   -1.05847913   +0.34406372   -0.76080213
 C   -2.45503549   +0.65599728   -0.34207375
 C   -3.37698881   -0.54084130   -0.58539670
 C   -3.08613896   -1.72912445   +0.30738756
 H   +0.91570867   -0.25976947   -0.50596197
 H   -0.92037862   +0.23316917   -1.83073806
 H   -2.49146831   +0.94291906   +0.70269080
 H   -2.81012636   +1.49202269   -0.94274974
 H   -4.40084273   -0.20529994   -0.42553168
 H   -3.31522995   -0.83682225   -1.63424868
 H   -3.77060771   -2.54764922   +0.09626473
 H   -2.07230875   -2.09720711   +0.16243577
 H   -3.18123520   -1.45995311   +1.35558894
 H   -0.50554623   +2.24406763   -1.14223161
22
 * E =  +9.699 kcal/mol ; (21) 358_176_190_293
 C   +0.00000000   +0.00000000   +0.00000000
 C   +0.00000000   +0.00000000   +1.46638996
 O   +1.18009320   +0.00000000   +2.10351434
 O   -1.00442040   +0.00103557   +2.12776163
 C   +2.40266011   -0.04931013   +1.40776804
 H   +3.17140272   -0.10036790   +2.16898654
 H   +2.46939104   -0.93325869   +0.77729978
 H   +2.55889876   +0.84560068   +0.80898872
 C   -1.13510207   -0.08836605   -0.72289807
 C   -2.51892895   -0.34183517   -0.21963986
 C   -3.52056292   -0.60553141   -1.33070994
 C   -3.78493958   +0.59596288   -2.21636188
 H   +0.93169441   +0.10716479   -0.52962540
 H   -1.00571843   -0.12999915   -1.79883066
 H   -2.47614820   -1.18550049   +0.46838350
 H   -2.83905031   +0.49290133   +0.40237607
 H   -3.17530190   -1.44372901   -1.93859639
 H   -4.45583408   -0.92895543   -0.87651498
 H   -4.53832492   +0.37245636   -2.96803401
 H   -4.13907896   +1.44140861   -1.62899285
 H   -2.88780356   +0.91992450   -2.74139020
 H   -1.34429325   +1.89974120   -1.08571371
22
 * E =  +9.801 kcal/mol ; (22) 354_165_093_183
 C   +0.00000000   +0.00000000   +0.00000000
 C   +0.00000000   +0.00000000   +1.46795991
 O   +1.18400244   +0.00000000   +2.09646908
 O   -1.00047328   +0.01267987   +2.13475844
 C   +2.39583452   -0.13332820   +1.39161550
 H   +3.16203410   -0.26402377   +2.14589261
 H   +2.38547274   -1.00324078   +0.73904272
 H   +2.62089101   +0.76034506   +0.81298936
 C   -1.09224671   -0.29204754   -0.73688410
 C   -2.40149966   -0.81380723   -0.24074214
 C   -3.43721513   +0.26038194   +0.07522447
 C   -4.70510123   -0.33981431   +0.64510905
 H   +0.90098093   +0.28679120   -0.51756287
 H   -0.94707990   -0.29886306   -1.80990983
 H   -2.80730279   -1.48700822   -0.99576641
 H   -2.23203773   -1.38909744   +0.66604817
 H   -2.99849256   +0.95434542   +0.78887761
 H   -3.66485950   +0.82462001   -0.82942103
 H   -5.44355863   +0.43006867   +0.85493894
 H   -5.15446647   -1.05031020   -0.04739448
 H   -4.49935284   -0.86455198   +1.57582942
 H   -1.55942379   +1.62043052   -1.20985418
22
 * E = +10.612 kcal/mol ; (23) 352_161_115_285
 C   +0.00000000   +0.00000000   +0.00000000
 C   +0.00000000   +0.00000000   +1.46991112
 O   +1.18953908   +0.00000000   +2.08902469
 O   -0.99412827   +0.01855544   +2.14407740
 C   +2.39400632   -0.16308991   +1.37740298
 H   +3.15931039   -0.32402389   +2.12683053
 H   +2.35466318   -1.02536984   +0.71599817
 H   +2.64344376   +0.72917435   +0.80659641
 C   -1.05607195   -0.36833744   -0.75430149
 C   -2.32289491   -1.02128200   -0.30780931
 C   -3.58005124   -0.17075371   -0.48450945
 C   -3.69772909   +0.93814740   +0.54009737
 H   +0.88429680   +0.35315517   -0.50635563
 H   -0.89169818   -0.36612003   -1.82548865
 H   -2.42943604   -1.92321623   -0.91222488
 H   -2.24099560   -1.31959163   +0.73236003
 H   -3.60161819   +0.24120029   -1.49481592
 H   -4.44291075   -0.83080055   -0.40483878
 H   -4.58904381   +1.53632030   +0.36460944
 H   -3.74593577   +0.53079002   +1.54656263
 H   -2.83552016   +1.60124222   +0.51007677
 H   -1.61306108   +1.48007070   -1.30409980
