21
 * E =  +0.000 kcal/mol ; (1) 181_190_067_117
 C   +0.00000000   +0.00000000   +0.00000000
 O   +0.00000000   +0.00000000   +1.41656949
 C   +1.20210919   +0.00000000   +1.98767233
 C   +1.10475530   -0.03583180   +3.48151748
 C   +2.43927627   +0.20369100   +4.16654761
 C   +2.95797525   +1.58741384   +3.96331524
 C   +3.15734322   +2.46624688   +4.93667656
 C   +3.67646807   +3.84817697   +4.74630823
 O   +2.22415652   +0.00868984   +1.35540780
 H   +2.96905784   +4.58931477   +5.11649296
 H   +0.50124662   +0.88526579   -0.37858675
 H   +4.60529857   +3.99812647   +5.29541561
 H   +3.86729781   +4.05638962   +3.69681935
 H   +2.93695226   +2.16977289   +5.95703587
 H   +3.18205893   +1.86562188   +2.94005810
 H   +2.32670340   +0.00759964   +5.23135530
 H   +3.15916085   -0.51537769   +3.77604083
 H   +0.35941317   +0.69269132   +3.79415703
 H   +0.70314233   -1.01463919   +3.74551739
 H   +0.50910598   -0.88052612   -0.37930704
 H   -1.04087973   -0.00417273   -0.29620780
21
 * E =  +0.120 kcal/mol ; (2) 180_178_177_120
 C   +0.00000000   +0.00000000   +0.00000000
 O   +0.00000000   +0.00000000   +1.41647350
 C   +1.20326988   +0.00000000   +1.98733179
 C   +1.10523885   +0.00493522   +3.48054885
 C   +2.46308323   -0.04801382   +4.15417138
 C   +2.35352412   +0.03499041   +5.63809917
 C   +2.77549674   -0.89452351   +6.48463978
 C   +2.67411208   -0.81175163   +7.96703851
 O   +2.22493086   -0.00175326   +1.35557813
 H   +2.09735472   -1.64378008   +8.36895361
 H   +0.50484677   +0.88301146   -0.37926841
 H   +3.65859530   -0.85823082   +8.43085829
 H   +2.19682415   +0.11335601   +8.27996019
 H   +3.23855403   -1.78827466   +6.08040102
 H   +1.89039371   +0.93161629   +6.03891623
 H   +2.97798153   -0.96222345   +3.86616550
 H   +3.06942411   +0.77408926   +3.77386840
 H   +0.55390813   +0.89952879   +3.77109003
 H   +0.48120067   -0.83494030   +3.78249739
 H   +0.50550646   -0.88269243   -0.37906597
 H   -1.04089878   -0.00042084   -0.29632859
21
 * E =  +0.248 kcal/mol ; (3) 182_207_071_253
 C   +0.00000000   +0.00000000   +0.00000000
 O   +0.00000000   +0.00000000   +1.41649902
 C   +1.20293706   +0.00000000   +1.98577846
 C   +1.11711810   -0.05551871   +3.48078979
 C   +2.33479211   +0.57670300   +4.13652736
 C   +2.34972514   +2.06047477   +3.97631906
 C   +3.16671478   +2.71815849   +3.16459424
 C   +3.17618100   +4.19349153   +2.97344888
 O   +2.22397417   +0.01284177   +1.35270304
 H   +4.14675956   +4.61615044   +3.23016516
 H   +0.51044251   +0.88032161   -0.37757404
 H   +2.98619211   +4.45351788   +1.93285917
 H   +2.42223380   +4.67896351   +3.58805012
 H   +3.87982966   +2.14494086   +2.58311826
 H   +1.61613899   +2.61844156   +4.54997040
 H   +2.33471689   +0.31528521   +5.19412256
 H   +3.23036908   +0.14818952   +3.69229247
 H   +0.19030955   +0.41512862   +3.79966619
 H   +1.04023463   -1.11016297   +3.74866572
 H   +0.50090636   -0.88535816   -0.37923478
 H   -1.04080985   +0.00552073   -0.29656661
21
 * E =  +0.347 kcal/mol ; (4) 180_180_180_000
 C   +0.00000000   +0.00000000   +0.00000000
 O   +0.00000000   +0.00000000   +1.41645221
 C   +1.20317110   +0.00000000   +1.98720334
 C   +1.10269512   +0.00000000   +3.48000877
 C   +2.45804403   -0.00000733   +4.14464048
 C   +2.42484985   -0.00000556   +5.63606382
 C   +1.34813496   +0.00000163   +6.41140787
 C   +1.37998805   +0.00000301   +7.90021111
 O   +2.22459024   -0.00000000   +1.35500091
 H   +0.87210225   +0.87452127   +8.30497332
 H   +0.50512197   +0.88285639   -0.37919637
 H   +0.87209334   -0.87450926   +8.30497509
 H   +2.40091824   -0.00000183   +8.27341755
 H   +0.36401098   +0.00000699   +5.95802211
 H   +3.39773802   -0.00001082   +6.11517938
 H   +3.02665615   -0.86261248   +3.79601146
 H   +3.02666624   +0.86259032   +3.79600950
 H   +0.51389760   +0.86914467   +3.77248885
 H   +0.51388754   -0.86913775   +3.77248892
 H   +0.50511898   -0.88285815   -0.37919630
 H   -1.04091257   +0.00000168   -0.29628011
21
 * E =  +0.780 kcal/mol ; (5) 178_141_290_359
 C   +0.00000000   +0.00000000   +0.00000000
 O   +0.00000000   +0.00000000   +1.41684401
 C   +1.20474684   +0.00000000   +1.98497070
 C   +1.12658398   +0.04376297   +3.48143674
 C   +2.17735427   -0.83586464   +4.12675117
 C   +1.95692685   -2.30398791   +3.96466500
 C   +0.94395933   -2.89069744   +3.34066712
 C   +0.77960933   -4.36415988   +3.20146861
 O   +2.22447421   -0.00581819   +1.35080004
 H   -0.15829738   -4.69939051   +3.64241854
 H   +0.50778606   +0.88152392   -0.37868196
 H   +0.75835583   -4.65927601   +2.15311690
 H   +1.59167535   -4.90021550   +3.68593628
 H   +0.16892623   -2.28298312   +2.88740703
 H   +2.72110325   -2.93476960   +4.40520335
 H   +3.14943820   -0.57610055   +3.70679284
 H   +2.23387894   -0.60026785   +5.19008856
 H   +1.29558379   +1.08191718   +3.76600475
 H   +0.12185708   -0.21675288   +3.80210616
 H   +0.50462205   -0.88396078   -0.37726470
 H   -1.04075615   +0.00207844   -0.29676498
21
 * E =  +0.810 kcal/mol ; (6) 180_313_299_114
 C   +0.00000000   +0.00000000   +0.00000000
 O   +0.00000000   +0.00000000   +1.41559726
 C   +1.20482561   +0.00000000   +1.98445159
 C   +1.11686675   -0.00629058   +3.48007301
 C   +0.13011392   +1.01976517   +4.02694278
 C   +0.51107859   +2.41482592   +3.66278478
 C   -0.19473529   +3.20150881   +2.86146301
 C   +0.18275893   +4.58726128   +2.47296608
 O   +2.22358104   -0.01511328   +1.34873714
 H   +0.28466850   +4.67761656   +1.39231792
 H   +0.50820749   +0.88210923   -0.37675133
 H   -0.58025133   +5.30217025   +2.77823440
 H   +1.12510114   +4.88266377   +2.92672379
 H   -1.12132996   +2.81525696   +2.45052192
 H   +1.44633261   +2.78443768   +4.07082831
 H   -0.86537324   +0.79844471   +3.64917745
 H   +0.09736121   +0.91252898   +5.11131530
 H   +0.81687117   -1.00836673   +3.78660720
 H   +2.12117914   +0.16554789   +3.85533368
 H   +0.50363775   -0.88361106   -0.37963322
 H   -1.04068941   +0.00261149   -0.29766847
21
 * E =  +0.897 kcal/mol ; (7) 180_047_065_004
 C   +0.00000000   +0.00000000   +0.00000000
 O   +0.00000000   +0.00000000   +1.41594863
 C   +1.20203956   +0.00000000   +1.98641405
 C   +1.11331642   +0.00694944   +3.48278077
 C   +0.13410064   -1.00481387   +4.04845801
 C   +0.48642767   -2.43585216   +3.80576542
 C   +1.58259770   -2.89420501   +3.21446895
 C   +1.88239954   -4.33752130   +3.00446868
 O   +2.22323866   +0.02144119   +1.35276421
 H   +2.00568414   -4.56202385   +1.94585876
 H   +0.49803815   +0.88685597   -0.37930648
 H   +2.81307325   -4.61948906   +3.49507994
 H   +1.08867525   -4.96921440   +3.39529120
 H   +2.32637539   -2.19761107   +2.84649795
 H   -0.24344951   -3.15501433   +4.16139902
 H   +0.04696925   -0.83950894   +5.12350475
 H   -0.85543792   -0.80769165   +3.63654903
 H   +2.11846670   -0.14687319   +3.86350151
 H   +0.80284531   +1.00924405   +3.77649485
 H   +0.51308817   -0.87929271   -0.37649946
 H   -1.04071645   -0.00966149   -0.29690194
21
 * E =  +1.064 kcal/mol ; (8) 180_306_178_118
 C   +0.00000000   +0.00000000   +0.00000000
 O   +0.00000000   +0.00000000   +1.41628300
 C   +1.20438205   +0.00000000   +1.98760146
 C   +1.11330895   -0.01186584   +3.48128827
 C   +0.24655795   +1.11191376   +4.04189843
 C   +0.13361488   +1.03456997   +5.52575203
 C   +0.55079113   +1.96874390   +6.36934075
 C   +0.43854652   +1.89531372   +7.85125830
 O   +2.22356981   +0.00235067   +1.35184063
 H   +1.41838617   +1.95997924   +8.32247740
 H   +0.50668890   +0.88209718   -0.37872862
 H   -0.15362854   +2.72203723   +8.24144125
 H   -0.02856393   +0.96618133   +8.16732907
 H   +1.00903140   +2.86390279   +5.96270846
 H   -0.32332288   +0.13489953   +5.92622145
 H   +0.66584404   +2.07577809   +3.75592635
 H   -0.74111256   +1.04545342   +3.58691459
 H   +0.69553916   -0.97420435   +3.77841386
 H   +2.12507059   +0.04540685   +3.86852064
 H   +0.50487991   -0.88325758   -0.37866842
 H   -1.04075234   +0.00106799   -0.29696040
21
 * E =  +1.103 kcal/mol ; (9) 182_326_299_242
 C   +0.00000000   +0.00000000   +0.00000000
 O   +0.00000000   +0.00000000   +1.41647851
 C   +1.20496538   +0.00000000   +1.98623954
 C   +1.12979842   -0.05143266   +3.48245034
 C   -0.05241588   +0.68811479   +4.09494901
 C   -0.04243070   +2.14760563   +3.78956399
 C   +0.04909515   +3.11117943   +4.69605222
 C   +0.06299493   +4.56876571   +4.39679172
 O   +2.22279451   +0.00726386   +1.34885770
 H   -0.76867701   +5.07759492   +4.88255421
 H   +0.50982312   +0.88041735   -0.37851984
 H   +0.97584137   +5.03598148   +4.76389627
 H   -0.00500005   +4.75343751   +3.32790689
 H   +0.11622666   +2.83209411   +5.74231772
 H   -0.11423675   +2.41845920   +2.74115122
 H   -0.97341418   +0.24078172   +3.72287286
 H   -0.03384564   +0.54006602   +5.17326398
 H   +1.08341720   -1.10801907   +3.74965145
 H   +2.07456953   +0.33159644   +3.85587237
 H   +0.50288214   -0.88451514   -0.37826847
 H   -1.04074266   +0.00395562   -0.29694665
21
 * E =  +1.105 kcal/mol ; (10) 181_311_183_241
 C   +0.00000000   +0.00000000   +0.00000000
 O   +0.00000000   +0.00000000   +1.41635578
 C   +1.20418219   +0.00000000   +1.98718202
 C   +1.11511167   -0.02291543   +3.48110605
 C   +0.16001839   +1.01896336   +4.05353349
 C   +0.14899086   +0.99910074   +5.54392560
 C   -0.91857548   +0.74809813   +6.28958417
 C   -0.93707533   +0.72635697   +7.77733314
 O   +2.22321242   +0.00470638   +1.35100629
 H   -1.63467470   +1.46408039   +8.17172773
 H   +0.50793034   +0.88142354   -0.37859465
 H   -1.26022596   -0.24405260   +8.15181365
 H   +0.04659700   +0.93756127   +8.18856435
 H   -1.86019850   +0.54493629   +5.79084545
 H   +1.09444363   +1.20285667   +6.03664726
 H   +0.46733640   +2.00594849   +3.70305666
 H   -0.84160899   +0.84434500   +3.66822996
 H   +0.78216225   -1.01724584   +3.77818416
 H   +2.12328089   +0.11217305   +3.86080061
 H   +0.50384948   -0.88388407   -0.37854569
 H   -1.04075205   +0.00236569   -0.29691879
21
 * E =  +1.395 kcal/mol ; (11) 181_313_180_000
 C   +0.00000000   +0.00000000   +0.00000000
 O   +0.00000000   +0.00000000   +1.41643726
 C   +1.20407812   +0.00000000   +1.98724623
 C   +1.12080385   -0.03273169   +3.48105639
 C   +0.13192759   +0.96196808   +4.05801146
 C   +0.03117828   +0.94372452   +5.54711988
 C   +0.70583350   +0.16337161   +6.38102094
 C   +0.56007554   +0.18574706   +7.86263204
 O   +2.22278862   +0.00517366   +1.35067482
 H   +0.24420189   -0.78542743   +8.24139010
 H   +0.50810984   +0.88128542   -0.37858676
 H   +1.50713656   +0.41980498   +8.34705673
 H   -0.17201335   +0.92513846   +8.17704896
 H   +1.42030075   -0.54819866   +5.98477852
 H   -0.67566641   +1.65103479   +5.96687386
 H   +0.40322923   +1.96988783   +3.73728297
 H   -0.85242012   +0.77627568   +3.62931263
 H   +0.82990440   -1.04483615   +3.76594522
 H   +2.12511748   +0.13741861   +3.85633470
 H   +0.50357618   -0.88403315   -0.37851824
 H   -1.04081330   +0.00251476   -0.29669768
21
 * E =  +7.921 kcal/mol ; (12) 002_187_068_117
 C   +0.00000000   +0.00000000   +0.00000000
 O   +0.00000000   +0.00000000   +1.40879453
 C   +1.14321013   +0.00000000   +2.10540671
 C   +2.43482268   +0.05299856   +1.33497464
 C   +3.64936350   -0.11746768   +2.23261085
 C   +3.75869749   -1.49041560   +2.80542494
 C   +4.75846226   -2.32690913   +2.55908524
 C   +4.88429484   -3.69682205   +3.12728768
 O   +1.08998142   -0.01946146   +3.30080753
 H   +4.93810821   -4.44714485   +2.33933794
 H   +0.55424047   +0.84347119   -0.40458504
 H   +5.79477890   -3.79466333   +3.71730579
 H   +4.03959098   -3.93703135   +3.76738820
 H   +5.55925553   -2.00116001   +1.90296955
 H   +2.95652284   -1.79479816   +3.46685372
 H   +4.54394202   +0.11011771   +1.65539099
 H   +3.58245166   +0.61108241   +3.03960712
 H   +2.43004845   -0.70734619   +0.55502642
 H   +2.47276969   +1.01589031   +0.82219965
 H   +0.40374670   -0.92819072   -0.39800165
 H   -1.03857706   +0.08701326   -0.29393599
21
 * E =  +8.028 kcal/mol ; (13) 359_178_177_119
 C   +0.00000000   +0.00000000   +0.00000000
 O   +0.00000000   +0.00000000   +1.40844204
 C   +1.14477362   +0.00000000   +2.10447079
 C   +2.43487679   -0.01620692   +1.33205588
 C   +3.64352675   +0.02865598   +2.24808112
 C   +4.92220837   -0.05355185   +1.48708591
 C   +5.86418107   +0.88008907   +1.48209831
 C   +7.14676373   +0.79839559   +0.73200041
 O   +1.09426851   +0.01006370   +3.29951178
 H   +7.24847806   +1.62904249   +0.03480989
 H   +0.45637433   +0.90211302   -0.40097688
 H   +7.99954080   +0.84895529   +1.40771503
 H   +7.21746477   -0.12814932   +0.16804306
 H   +5.70546806   +1.77562176   +2.07322155
 H   +5.07948192   -0.95346554   +0.89990678
 H   +3.61326315   +0.93971833   +2.84132130
 H   +3.56764741   -0.79558439   +2.95645932
 H   +2.45906838   -0.91239806   +0.70967758
 H   +2.45183658   +0.82474801   +0.63855320
 H   +0.50495792   -0.87471234   -0.40318628
 H   -1.04175051   -0.02816802   -0.29412852
21
 * E =  +8.338 kcal/mol ; (14) 000_180_180_000
 C   +0.00000000   +0.00000000   +0.00000000
 O   +0.00000000   +0.00000000   +1.40832775
 C   +1.14347598   +0.00000000   +2.10614360
 C   +2.43331549   +0.00000000   +1.33374085
 C   +3.63152662   +0.00000749   +2.25230761
 C   +4.95174631   +0.00001005   +1.55820613
 C   +5.16944400   +0.00000650   +0.24925678
 C   +6.51774806   +0.00000937   -0.38298690
 O   +1.09003957   +0.00000380   +3.30112812
 H   +6.65558902   -0.87461009   -1.01745043
 H   +0.48046149   +0.88897524   -0.40218133
 H   +6.65558334   +0.87462676   -1.01745456
 H   +7.30481607   +0.00001372   +0.36660250
 H   +4.32671216   +0.00000111   -0.43225290
 H   +5.81298341   +0.00001543   +2.21706989
 H   +3.56897678   +0.86176627   +2.91662897
 H   +3.56898301   -0.86174724   +2.91663481
 H   +2.45187517   -0.87031936   +0.67629334
 H   +2.45187068   +0.87031297   +0.67628478
 H   +0.48047179   -0.88896940   -0.40218179
 H   -1.04218015   -0.00000593   -0.29396286
21
 * E =  +8.581 kcal/mol ; (15) 002_194_075_254
 C   +0.00000000   +0.00000000   +0.00000000
 O   +0.00000000   +0.00000000   +1.40840605
 C   +1.14229227   +0.00000000   +2.10783495
 C   +2.43949864   +0.04123924   +1.34198190
 C   +3.62596436   -0.30504197   +2.22799684
 C   +3.70129228   -1.76776603   +2.51802751
 C   +3.38650713   -2.31942019   +3.68198839
 C   +3.43600510   -3.77637978   +3.97677768
 O   +1.08419962   +0.00433391   +3.30250233
 H   +4.11102216   -3.98575580   +4.80563122
 H   +0.58691502   +0.82087339   -0.40524826
 H   +2.45469141   -4.14698141   +4.26995094
 H   +3.77184654   -4.34650689   +3.11409153
 H   +3.05142282   -1.66844635   +4.48098049
 H   +4.01657354   -2.40846787   +1.69995964
 H   +4.53689233   +0.01961077   +1.72616921
 H   +3.54384205   +0.25330810   +3.15682291
 H   +2.39462388   -0.62833387   +0.48470558
 H   +2.53994983   +1.04969275   +0.93514437
 H   +0.36587000   -0.94397236   -0.39787327
 H   -1.03449208   +0.12776886   -0.29392861
21
 * E =  +9.532 kcal/mol ; (16) 359_167_286_003
 C   +0.00000000   +0.00000000   +0.00000000
 O   +0.00000000   +0.00000000   +1.40848827
 C   +1.14366588   +0.00000000   +2.10798181
 C   +2.43844368   -0.02256328   +1.33730649
 C   +3.63353453   +0.29110140   +2.20943882
 C   +3.77618344   +1.72380163   +2.60649193
 C   +2.94457263   +2.71720603   +2.32738285
 C   +3.13241174   +4.12698066   +2.76714806
 O   +1.08861826   -0.01774263   +3.30169811
 H   +3.16557630   +4.80664885   +1.91657601
 H   +0.36485370   +0.94400740   -0.39926684
 H   +2.30662357   +4.45054900   +3.39929502
 H   +4.05461354   +4.24486856   +3.33019406
 H   +2.04418840   +2.51995755   +1.75680042
 H   +4.65806413   +1.94711389   +3.19628339
 H   +3.57820505   -0.31813076   +3.11134273
 H   +4.53869031   -0.01777771   +1.68535288
 H   +2.53838655   -1.02395834   +0.91519051
 H   +2.39306340   +0.65830523   +0.48921451
 H   +0.58821761   -0.81992792   -0.40506983
 H   -1.03424821   -0.12915953   -0.29417390
21
 * E =  +9.786 kcal/mol ; (17) 005_091_176_120
 C   +0.00000000   +0.00000000   +0.00000000
 O   +0.00000000   +0.00000000   +1.40890971
 C   +1.14061167   +0.00000000   +2.11114744
 C   +2.44689819   +0.12052484   +1.37595336
 C   +2.85691315   +1.59029938   +1.25110398
 C   +4.19632210   +1.73827606   +0.61588337
 C   +4.43314772   +2.39732154   -0.51030303
 C   +5.76964261   +2.55387570   -1.14505804
 O   +1.08121986   -0.04391744   +3.30564594
 H   +5.77412377   +2.14942671   -2.15630870
 H   +0.57271031   +0.82995035   -0.40660078
 H   +6.04403172   +3.60481854   -1.22502236
 H   +6.54145109   +2.04562744   -0.57319110
 H   +3.59945222   +2.87304250   -1.01602158
 H   +5.02504165   +1.26207570   +1.12971375
 H   +2.11583974   +2.14620122   +0.67689194
 H   +2.86613494   +2.02002111   +2.25292260
 H   +3.18211261   -0.40735196   +1.97581145
 H   +2.42017534   -0.34235296   +0.39367963
 H   +0.38191798   -0.93838433   -0.39559552
 H   -1.03669315   +0.10993343   -0.29356750
21
 * E =  +9.958 kcal/mol ; (18) 007_089_180_243
 C   +0.00000000   +0.00000000   +0.00000000
 O   +0.00000000   +0.00000000   +1.40862876
 C   +1.14077767   +0.00000000   +2.11212264
 C   +2.44508049   +0.15549196   +1.38048287
 C   +2.80860779   +1.63655564   +1.24362553
 C   +4.09947572   +1.82774005   +0.52384761
 C   +5.18147458   +2.38429180   +1.05096430
 C   +6.47552785   +2.57734534   +0.34313079
 O   +1.07981805   -0.06925790   +3.30518416
 H   +6.74474035   +3.63179473   +0.30080750
 H   +0.55897035   +0.83898441   -0.40737388
 H   +7.28518169   +2.06653230   +0.86236932
 H   +6.43209710   +2.19768565   -0.67434212
 H   +5.13401549   +2.73322577   +2.07674125
 H   +4.13917049   +1.47347033   -0.50147203
 H   +2.01044416   +2.16096789   +0.71424115
 H   +2.86484094   +2.07618503   +2.23731366
 H   +3.19917314   -0.34181560   +1.98130977
 H   +2.42851851   -0.31905698   +0.40238388
 H   +0.39592198   -0.93269394   -0.39559847
 H   -1.03824755   +0.09361346   -0.29379420
21
 * E = +10.157 kcal/mol ; (19) 354_270_181_001
 C   +0.00000000   +0.00000000   +0.00000000
 O   +0.00000000   +0.00000000   +1.40907825
 C   +1.14012667   +0.00000000   +2.11258029
 C   +2.44437870   -0.13661988   +1.37771412
 C   +2.81752855   -1.60693575   +1.24539446
 C   +4.11617135   -1.86069724   +0.55466709
 C   +4.95130800   -0.94850156   +0.07593363
 C   +6.24302638   -1.25625686   -0.59714647
 O   +1.07971753   +0.05890281   +3.30619018
 H   +6.26422434   -0.85576644   -1.60976656
 H   +0.38264008   +0.93838919   -0.39503796
 H   +7.07929350   -0.80712882   -0.06323842
 H   +6.41475756   -2.32794904   -0.65350548
 H   +4.70474744   +0.10213789   +0.17294712
 H   +4.38336136   -2.90663032   +0.45299085
 H   +2.84953092   -2.04511765   +2.24361431
 H   +2.02835991   -2.14869379   +0.71911029
 H   +2.41643913   +0.33576145   +0.39911671
 H   +3.18953580   +0.37522555   +1.97893132
 H   +0.57174479   -0.83007979   -0.40760397
 H   -1.03686216   -0.10835942   -0.29351831
21
 * E = +10.456 kcal/mol ; (20) 009_086_065_124
 C   +0.00000000   +0.00000000   +0.00000000
 O   +0.00000000   +0.00000000   +1.40885170
 C   +1.13978844   +0.00000000   +2.11530004
 C   +2.43859726   +0.20798330   +1.38743640
 C   +2.74743464   +1.70233582   +1.22401165
 C   +2.97898801   +2.39791757   +2.52299293
 C   +4.07881974   +3.07807789   +2.81620401
 C   +4.32803707   +3.78032156   +4.10401586
 O   +1.07467679   -0.10872422   +3.30558234
 H   +5.22342068   +3.39717275   +4.59161060
 H   +0.54570506   +0.84645108   -0.40904226
 H   +4.48669565   +4.84632284   +3.94577698
 H   +3.49229396   +3.65881173   +4.78758559
 H   +4.86699575   +3.13783440   +2.07270529
 H   +2.19092013   +2.32138596   +3.26283926
 H   +3.62851256   +1.80512457   +0.59308490
 H   +1.92485830   +2.18459985   +0.69160845
 H   +3.21024692   -0.25485396   +1.99369142
 H   +2.43269278   -0.27590589   +0.41444056
 H   +0.41041870   -0.92688892   -0.39462676
 H   -1.03976776   +0.07649671   -0.29341956
21
 * E = +10.666 kcal/mol ; (21) 011_083_058_237
 C   +0.00000000   +0.00000000   +0.00000000
 O   +0.00000000   +0.00000000   +1.40826104
 C   +1.14259462   +0.00000000   +2.11102032
 C   +2.43488479   +0.25905205   +1.38643538
 C   +2.69323599   +1.75982033   +1.20491785
 C   +2.73217284   +2.50307159   +2.49621543
 C   +1.95452126   +3.53452454   +2.79254591
 C   +1.97497959   +4.27591589   +4.08157039
 O   +1.08900484   -0.15746114   +3.29529222
 H   +2.19138348   +5.33194627   +3.92553269
 H   +0.53382583   +0.85281632   -0.41096456
 H   +1.00627170   +4.21951149   +4.57576312
 H   +2.72242332   +3.87085619   +4.75818775
 H   +1.23562627   +3.87068079   +2.05279421
 H   +3.44012055   +2.14694209   +3.23626333
 H   +3.64816805   +1.86003183   +0.68743876
 H   +1.93980200   +2.20452039   +0.55582773
 H   +3.21546143   -0.16794478   +2.00838068
 H   +2.46477184   -0.24072795   +0.42137957
 H   +0.42296119   -0.92161636   -0.39416405
 H   -1.04051934   +0.06191417   -0.29432994
21
 * E = +11.322 kcal/mol ; (22) 345_283_288_000
 C   +0.00000000   +0.00000000   +0.00000000
 O   +0.00000000   +0.00000000   +1.40874922
 C   +1.13880221   +0.00000000   +2.11747986
 C   +2.41916064   -0.34593054   +1.40501686
 C   +2.59249566   -1.84068826   +1.14276317
 C   +2.89933315   -2.69302592   +2.33157386
 C   +3.04038163   -2.29813639   +3.58950499
 C   +3.35824434   -3.21289893   +4.71971495
 O   +1.08235320   +0.25051999   +3.28631779
 H   +4.28143948   -2.91567253   +5.21543497
 H   +0.44277043   +0.91352430   -0.39140636
 H   +2.57343841   -3.18261741   +5.47407244
 H   +3.46913422   -4.24092055   +4.38379232
 H   +2.89726358   -1.25641906   +3.84426649
 H   +3.02074964   -3.74700252   +2.10564345
 H   +1.70474896   -2.24214721   +0.65096250
 H   +3.39838591   -1.95863299   +0.41661281
 H   +2.47012881   +0.18872455   +0.45917045
 H   +3.23037969   +0.01789108   +2.02782873
 H   +0.51461689   -0.86223414   -0.41475963
 H   -1.04191963   -0.03784631   -0.29325727
