22
 * E =  +0.000 kcal/mol ; (1) 181_188_067_116
 C   +0.00000000   +0.00000000   +0.00000000
 O   +0.00000000   +0.00000000   +1.41677817
 C   +1.20138511   +0.00000000   +1.98788224
 C   +1.10449828   -0.03152408   +3.48173143
 C   +2.44618274   +0.16117854   +4.16572961
 C   +3.01502339   +1.52673758   +3.95187592
 C   +3.22604451   +2.42397153   +4.89002742
 C   +3.77022043   +3.79182836   +4.87549639
 O   +2.22408310   +0.00743486   +1.35608038
 H   +3.04811788   +4.50736852   +5.26445598
 H   +0.50558778   +0.88279410   -0.37848414
 H   +4.66443213   +3.86547821   +5.49168179
 H   +4.03205447   +4.08984298   +3.85985681
 H   +2.86745103   +2.00698291   +6.20415475
 H   +3.27123337   +1.77865245   +2.92453146
 H   +2.32877728   -0.02329923   +5.23048200
 H   +3.14312961   -0.57993449   +3.77629165
 H   +0.38562299   +0.72290610   +3.79513081
 H   +0.66938709   -0.99467969   +3.74930320
 H   +0.50467428   -0.88313467   -0.37907227
 H   -1.04089121   +0.00072939   -0.29603214
 H   +2.64781308   +1.75734512   +7.01496262
22
 * E =  +0.444 kcal/mol ; (2) 179_175_175_119
 C   +0.00000000   +0.00000000   +0.00000000
 O   +0.00000000   +0.00000000   +1.41670084
 C   +1.20296861   +0.00000000   +1.98714774
 C   +1.10452339   +0.01433558   +3.48052880
 C   +2.45777083   -0.11575934   +4.15190042
 C   +2.35395618   +0.01852711   +5.63507696
 C   +2.68069784   -0.89553022   +6.52214786
 C   +2.65166061   -0.93077203   +7.99333756
 O   +2.22501836   -0.00400098   +1.35629041
 H   +2.02061338   -1.74041179   +8.35501817
 H   +0.50303584   +0.88413893   -0.37906786
 H   +3.64807748   -1.08864271   +8.40180102
 H   +2.26512359   +0.00696451   +8.39389034
 H   +3.16544670   -2.11430134   +5.96770738
 H   +1.96814418   +0.96876202   +6.00648503
 H   +2.90747456   -1.07053213   +3.89251174
 H   +3.11892859   +0.65350909   +3.75465736
 H   +0.61016404   +0.94384503   +3.76537178
 H   +0.43084965   -0.78367412   +3.78762045
 H   +0.50765399   -0.88160869   -0.37857372
 H   -1.04087497   -0.00271055   -0.29626885
 H   +3.46043253   -2.86871966   +5.63676600
22
 * E =  +0.982 kcal/mol ; (3) 179_311_299_113
 C   +0.00000000   +0.00000000   +0.00000000
 O   +0.00000000   +0.00000000   +1.41528065
 C   +1.20012408   +0.00000000   +1.98959219
 C   +1.09718887   +0.02271124   +3.48461123
 C   +0.14022976   +1.09534058   +3.99352865
 C   +0.58414002   +2.46652288   +3.59960659
 C   -0.04101842   +3.26645221   +2.76349906
 C   +0.24945475   +4.61458444   +2.24955362
 O   +2.22471947   -0.02790883   +1.36344806
 H   +0.33657409   +4.61052428   +1.16472832
 H   +0.51895897   +0.87604361   -0.37619436
 H   -0.54369449   +5.31313593   +2.50934394
 H   +1.18505821   +4.99140295   +2.66365285
 H   -1.25212578   +2.73738171   +2.22917733
 H   +1.52609768   +2.81081018   +4.02668315
 H   -0.85704826   +0.90546413   +3.60667261
 H   +0.09106381   +1.02325009   +5.07959256
 H   +0.75419351   -0.95951721   +3.80879663
 H   +2.10204866   +0.16679176   +3.86992428
 H   +0.49220817   -0.89009916   -0.37964641
 H   -1.04060912   +0.01747607   -0.29672952
 H   -1.99572783   +2.42321536   +1.89379976
22
 * E =  +0.985 kcal/mol ; (4) 180_180_180_000
 C   +0.00000000   +0.00000000   +0.00000000
 O   +0.00000000   +0.00000000   +1.41636046
 C   +1.20202310   +0.00000000   +1.98746959
 C   +1.10248754   -0.00000106   +3.48021417
 C   +2.46294852   +0.00004156   +4.13311198
 C   +2.45793563   +0.00003232   +5.62560558
 C   +1.44383899   -0.00000444   +6.46483588
 C   +1.39326141   -0.00001548   +7.93861306
 O   +2.22448913   +0.00000002   +1.35595218
 H   +0.86891189   +0.87671150   +8.31416423
 H   +0.50504706   +0.88289007   -0.37925618
 H   +0.86896843   -0.87678109   +8.31415301
 H   +2.39985603   +0.00001428   +8.35688053
 H   +0.10100190   -0.00004272   +5.98919443
 H   +3.45022195   +0.00006092   +6.07625277
 H   +3.02977539   -0.86254687   +3.78248946
 H   +3.02971703   +0.86267309   +3.78250073
 H   +0.51420449   +0.86669044   +3.77809101
 H   +0.51426212   -0.86673230   +3.77809059
 H   +0.50504358   -0.88289222   -0.37925607
 H   -1.04096123   +0.00000129   -0.29604436
 H   -0.75375543   -0.00006727   +5.80211900
22
 * E =  +1.073 kcal/mol ; (5) 183_206_071_245
 C   +0.00000000   +0.00000000   +0.00000000
 O   +0.00000000   +0.00000000   +1.41660996
 C   +1.20449318   +0.00000000   +1.98447275
 C   +1.11826294   -0.06376923   +3.47922759
 C   +2.33620204   +0.55393662   +4.14513513
 C   +2.35715560   +2.04100280   +3.99861311
 C   +3.24505204   +2.73585530   +3.32202685
 C   +3.40855867   +4.17438342   +3.05890017
 O   +2.22482505   +0.01713289   +1.35229420
 H   +4.36379569   +4.53612769   +3.43495931
 H   +0.50366880   +0.88409785   -0.37788391
 H   +3.38264104   +4.38019177   +1.99043045
 H   +2.61459783   +4.74957750   +3.53669516
 H   +4.26947668   +1.95668524   +2.70750717
 H   +1.54627585   +2.58381851   +4.48600584
 H   +2.32389665   +0.29131819   +5.20244308
 H   +3.23500226   +0.12780968   +3.70744327
 H   +0.19300398   +0.40796558   +3.80156908
 H   +1.03594699   -1.11953485   +3.74020726
 H   +0.50792593   -0.88138500   -0.37907769
 H   -1.04082223   -0.00247083   -0.29662734
 H   +4.90687951   +1.49399572   +2.33428640
22
 * E =  +1.261 kcal/mol ; (6) 182_326_299_243
 C   +0.00000000   +0.00000000   +0.00000000
 O   +0.00000000   +0.00000000   +1.41667394
 C   +1.20508613   +0.00000000   +1.98673557
 C   +1.12950489   -0.05329079   +3.48296777
 C   -0.05800021   +0.67486012   +4.09662506
 C   -0.05529763   +2.13686803   +3.78900474
 C   +0.04361561   +3.11073250   +4.66691550
 C   +0.06678276   +4.57776557   +4.55091893
 O   +2.22297555   +0.00891468   +1.34977116
 H   -0.75983350   +5.02830869   +5.09709098
 H   +0.51196682   +0.87912457   -0.37859960
 H   +0.98827636   +4.98910707   +4.95846764
 H   -0.00877853   +4.88241487   +3.50669593
 H   +0.15080557   +2.68020170   +6.01950086
 H   -0.14041983   +2.40489951   +2.73594356
 H   -0.97701538   +0.22817574   +3.72048225
 H   -0.04023149   +0.52842741   +5.17363384
 H   +1.08957690   -1.11020525   +3.74957141
 H   +2.07104701   +0.33515182   +3.85869479
 H   +0.50069158   -0.88579958   -0.37807199
 H   -1.04073666   +0.00614683   -0.29688824
 H   +0.21885465   +2.42241548   +6.85391855
22
 * E =  +1.400 kcal/mol ; (7) 181_313_177_119
 C   +0.00000000   +0.00000000   +0.00000000
 O   +0.00000000   +0.00000000   +1.41657726
 C   +1.20399423   +0.00000000   +1.98746127
 C   +1.11835338   -0.02658541   +3.48211770
 C   +0.11839069   +0.96679298   +4.06077519
 C   +0.02750322   +0.84946162   +5.54631096
 C   +0.30965011   +1.79311714   +6.41742091
 C   +0.27480260   +1.85369331   +7.88749190
 O   +2.22336637   +0.00243760   +1.35244207
 H   +1.25706622   +2.08680425   +8.29402043
 H   +0.51148875   +0.87943782   -0.37820501
 H   -0.41087879   +2.62530863   +8.23245929
 H   -0.04889288   +0.89984971   +8.30516964
 H   +0.74310419   +3.02067318   +5.84211520
 H   -0.30113172   -0.11648390   +5.93134264
 H   +0.40426425   +1.98088028   +3.79002843
 H   -0.85762357   +0.77889607   +3.61626194
 H   +0.83491320   -1.04018845   +3.76965752
 H   +2.11771526   +0.15255949   +3.86479646
 H   +0.50008995   -0.88601755   -0.37850653
 H   -1.04077739   +0.00673041   -0.29669932
 H   +1.01337963   +3.77855446   +5.49732414
22
 * E =  +1.436 kcal/mol ; (8) 181_315_183_241
 C   +0.00000000   +0.00000000   +0.00000000
 O   +0.00000000   +0.00000000   +1.41656716
 C   +1.20293892   +0.00000000   +1.98779593
 C   +1.11531632   -0.03084638   +3.48217306
 C   +0.09186676   +0.93801470   +4.06077141
 C   +0.10419342   +0.91962459   +5.55391617
 C   -0.90570406   +0.59514784   +6.33113320
 C   -1.07288801   +0.52308154   +7.79162686
 O   +2.22339870   +0.00619547   +1.35395028
 H   -1.85560704   +1.19908935   +8.13064414
 H   +0.50671171   +0.88215532   -0.37843560
 H   -1.35243883   -0.48070840   +8.10585998
 H   -0.14666354   +0.79331142   +8.29964402
 H   -2.09626382   +0.23548830   +5.63888589
 H   +1.04414529   +1.19798242   +6.03120096
 H   +0.32173637   +1.94589215   +3.71210524
 H   -0.89844767   +0.69112675   +3.68992101
 H   +0.85402139   -1.04801643   +3.77423605
 H   +2.11328133   +0.16895440   +3.86090322
 H   +0.50476132   -0.88340019   -0.37835832
 H   -1.04084388   +0.00116113   -0.29640612
 H   -2.83259611   +0.01033235   +5.22244832
22
 * E =  +2.248 kcal/mol ; (9) 179_046_180_001
 C   +0.00000000   +0.00000000   +0.00000000
 O   +0.00000000   +0.00000000   +1.41643840
 C   +1.20499475   +0.00000000   +1.98681880
 C   +1.12294695   +0.03541291   +3.48086140
 C   +0.12218999   -0.95019751   +4.05069595
 C   +0.00540858   -0.94827529   +5.53945830
 C   +0.63291161   -0.20984413   +6.43001521
 C   +0.54705177   -0.16898030   +7.90144142
 O   +2.22260974   -0.00760350   +1.34898905
 H   +1.51041093   -0.39015163   +8.35701181
 H   +0.50230211   +0.88481819   -0.37834304
 H   +0.24252795   +0.81613685   +8.24983565
 H   -0.17733777   -0.89797977   +8.26467068
 H   +1.59463594   +0.76137209   +6.02951241
 H   -0.71130215   -1.66877934   +5.93305091
 H   -0.85992263   -0.75374814   +3.62229032
 H   +0.38311557   -1.96054613   +3.73012876
 H   +2.12347121   -0.14356242   +3.86012780
 H   +0.84531884   +1.04969909   +3.76834004
 H   +0.50965305   -0.88038292   -0.37865574
 H   -1.04077958   -0.00398026   -0.29688214
 H   +2.19760830   +1.37987766   +5.89172380
22
 * E =  +7.869 kcal/mol ; (10) 003_186_068_115
 C   +0.00000000   +0.00000000   +0.00000000
 O   +0.00000000   +0.00000000   +1.40914330
 C   +1.14281247   +0.00000000   +2.10502389
 C   +2.43411554   +0.06381871   +1.33524006
 C   +3.65006515   -0.08466442   +2.23354361
 C   +3.76788734   -1.45251227   +2.82424026
 C   +4.73380700   -2.31010935   +2.57589447
 C   +5.02208561   -3.67184448   +3.05544931
 O   +1.09074846   -0.02779992   +3.30065259
 H   +5.07230834   -4.37869551   +2.22928895
 H   +0.54484308   +0.84961630   -0.40437923
 H   +5.97797794   -3.71084277   +3.57451053
 H   +4.24707088   -4.00751252   +3.74489123
 H   +5.72288787   -1.84614556   +1.66220230
 H   +2.97987125   -1.74009176   +3.51691749
 H   +4.54245221   +0.14146225   +1.65539370
 H   +3.57720642   +0.64721178   +3.03628832
 H   +2.43974652   -0.70077594   +0.55954149
 H   +2.46305911   +1.02383040   +0.81681236
 H   +0.41398524   -0.92365137   -0.39786016
 H   -1.03947424   +0.07562377   -0.29369049
 H   +6.33346882   -1.56718949   +1.09809890
22
 * E =  +8.423 kcal/mol ; (11) 359_176_175_117
 C   +0.00000000   +0.00000000   +0.00000000
 O   +0.00000000   +0.00000000   +1.40855957
 C   +1.14423090   +0.00000000   +2.10468479
 C   +2.43458598   -0.03428602   +1.33257539
 C   +3.64000505   +0.06718572   +2.24762699
 C   +4.91966944   -0.07816135   +1.49251371
 C   +5.85995883   +0.83412942   +1.37764329
 C   +7.16414024   +0.85952644   +0.69588408
 O   +1.09462732   +0.01850659   +3.29953058
 H   +7.20891594   +1.66176119   -0.03824011
 H   +0.42959410   +0.91583332   -0.39958880
 H   +7.97351824   +1.02332791   +1.40483097
 H   +7.34926539   -0.08401591   +0.18145379
 H   +5.58158443   +2.05955855   +2.04594454
 H   +5.07981010   -1.03516202   +0.99407526
 H   +3.61762801   +1.01675457   +2.77501460
 H   +3.56327304   -0.70766355   +3.00859560
 H   +2.46751104   -0.96041052   +0.75541831
 H   +2.44486992   +0.77180186   +0.59942896
 H   +0.53016636   -0.85912562   -0.40416574
 H   -1.04051654   -0.05814563   -0.29406261
 H   +5.41754857   +2.81856600   +2.44987591
22
 * E =  +8.476 kcal/mol ; (12) 359_179_180_000
 C   +0.00000000   +0.00000000   +0.00000000
 O   +0.00000000   +0.00000000   +1.40948440
 C   +1.14426159   +0.00000000   +2.10366402
 C   +2.42967798   -0.02613717   +1.32572912
 C   +3.62826041   +0.00878401   +2.24138335
 C   +4.95250121   -0.01788788   +1.55367893
 C   +5.23451709   -0.06814546   +0.26889279
 C   +6.51870859   -0.09704612   -0.45511341
 O   +1.09692220   +0.01667410   +3.29941490
 H   +6.61059497   -0.99838859   -1.05812656
 H   +0.44523589   +0.90810071   -0.39983683
 H   +6.61138729   +0.75422903   -1.12684888
 H   +7.35300009   -0.06996663   +0.24576592
 H   +4.19351711   -0.10588784   -0.70453441
 H   +5.80783083   +0.00830149   +2.22826899
 H   +3.57198216   +0.89583406   +2.87173168
 H   +3.57089402   -0.82701655   +2.93794528
 H   +2.44804367   -0.91962280   +0.70137165
 H   +2.44755040   +0.81436377   +0.63216797
 H   +0.51805272   -0.86663439   -0.40344079
 H   -1.04139563   -0.04171802   -0.29353317
 H   +3.62998127   -0.13195324   -1.37434815
22
 * E =  +9.587 kcal/mol ; (13) 002_192_074_246
 C   +0.00000000   +0.00000000   +0.00000000
 O   +0.00000000   +0.00000000   +1.40811478
 C   +1.14423095   +0.00000000   +2.10658923
 C   +2.43798010   +0.05174298   +1.33603044
 C   +3.63524023   -0.24548117   +2.22290305
 C   +3.72796987   -1.69663937   +2.56879515
 C   +3.57801000   -2.21031169   +3.76944134
 C   +3.61106075   -3.58687712   +4.28672271
 O   +1.09161271   -0.00554605   +3.30038669
 H   +4.38231316   -3.70281771   +5.04595221
 H   +0.57993125   +0.82566292   -0.40576321
 H   +2.66071000   -3.84952631   +4.74758610
 H   +3.81115066   -4.29972503   +3.48577081
 H   +3.32046190   -1.25200700   +4.79499760
 H   +3.92118473   -2.37804430   +1.73894548
 H   +4.53830560   +0.06127244   +1.69590981
 H   +3.56106029   +0.34549933   +3.13139673
 H   +2.40351255   -0.63814811   +0.49389631
 H   +2.51862576   +1.05119457   +0.90428014
 H   +0.37376507   -0.94077924   -0.39844539
 H   -1.03537811   +0.11912680   -0.29446946
 H   +3.17262856   -0.67507099   +5.42917797
22
 * E =  +9.846 kcal/mol ; (14) 354_271_182_247
 C   +0.00000000   +0.00000000   +0.00000000
 O   +0.00000000   +0.00000000   +1.40997593
 C   +1.13924987   +0.00000000   +2.11296643
 C   +2.44247985   -0.14445766   +1.37642000
 C   +2.80133495   -1.62402755   +1.22094695
 C   +4.11992767   -1.80209969   +0.54420105
 C   +4.30600888   -2.33258499   -0.64462332
 C   +5.49970547   -2.59024924   -1.46531224
 O   +1.08152003   +0.05998992   +3.30691257
 H   +5.61061019   -3.65282296   -1.67242595
 H   +0.38448628   +0.93807153   -0.39386231
 H   +5.43702631   -2.07698004   -2.42289645
 H   +6.39948432   -2.24807171   -0.95339970
 H   +3.10701727   -2.73785622   -1.29418474
 H   +4.99343599   -1.44699211   +1.09038018
 H   +2.82982514   -2.07273687   +2.21308496
 H   +2.03026993   -2.14694686   +0.65883232
 H   +2.42489619   +0.33502409   +0.40182489
 H   +3.19416410   +0.35141742   +1.98286230
 H   +0.56907523   -0.83116983   -0.40898334
 H   -1.03729423   -0.10572899   -0.29268964
 H   +2.36500290   -2.97287338   -1.69833262
22
 * E = +10.508 kcal/mol ; (15) 008_087_065_124
 C   +0.00000000   +0.00000000   +0.00000000
 O   +0.00000000   +0.00000000   +1.40917536
 C   +1.13888793   +0.00000000   +2.11550631
 C   +2.44010567   +0.19302009   +1.38770155
 C   +2.76685223   +1.68343140   +1.23242137
 C   +3.01288152   +2.36193879   +2.54096520
 C   +4.09866328   +3.03507938   +2.85212406
 C   +4.52248699   +3.76164357   +4.05970333
 O   +1.07324235   -0.09464616   +3.30732199
 H   +5.44652138   +3.34964991   +4.46066236
 H   +0.54741506   +0.84573815   -0.40839447
 H   +4.70181606   +4.81307907   +3.84309669
 H   +3.75744321   +3.69772437   +4.83356914
 H   +5.08817108   +3.07631790   +1.82887604
 H   +2.22826286   +2.27379584   +3.28993015
 H   +3.64479386   +1.78384726   +0.59940921
 H   +1.94628583   +2.18398143   +0.71483984
 H   +3.20667514   -0.28315278   +1.99005345
 H   +2.42879170   -0.28355778   +0.41144971
 H   +0.40843700   -0.92759402   -0.39475855
 H   -1.03962481   +0.07884257   -0.29312266
 H   +5.70199747   +3.10057452   +1.20352284
22
 * E = +10.550 kcal/mol ; (16) 353_272_179_118
 C   +0.00000000   +0.00000000   +0.00000000
 O   +0.00000000   +0.00000000   +1.40852243
 C   +1.14077562   +0.00000000   +2.11238883
 C   +2.44383684   -0.16193462   +1.37918891
 C   +2.79595266   -1.64411033   +1.23552619
 C   +4.07403767   -1.83631927   +0.48800577
 C   +5.16427414   -2.39985013   +0.96028677
 C   +6.49064012   -2.67001737   +0.38332081
 O   +1.08065186   +0.07609568   +3.30467672
 H   +7.27424692   -2.18005481   +0.95796829
 H   +0.39657281   +0.93247844   -0.39553580
 H   +6.70732697   -3.73653321   +0.38319990
 H   +6.54629333   -2.31096320   -0.64473529
 H   +5.06530166   -2.84944721   +2.30512018
 H   +4.09329803   -1.46620304   -0.53748733
 H   +2.86976615   -2.08804402   +2.22482035
 H   +1.99072083   -2.16520040   +0.71461486
 H   +2.42715621   +0.31700234   +0.40299659
 H   +3.20203985   +0.32803829   +1.98075504
 H   +0.55807629   -0.83935679   -0.40788890
 H   -1.03830259   -0.09273280   -0.29387161
 H   +5.01477026   -3.12852630   +3.13355635
22
 * E = +10.676 kcal/mol ; (17) 351_276_305_123
 C   +0.00000000   +0.00000000   +0.00000000
 O   +0.00000000   +0.00000000   +1.40870274
 C   +1.13954764   +0.00000000   +2.11206757
 C   +2.44251093   -0.20310612   +1.38650382
 C   +2.75017077   -1.68773457   +1.16324793
 C   +2.74257279   -2.47589172   +2.43141183
 C   +1.99007077   -3.52672801   +2.66962367
 C   +1.82356079   -4.40933788   +3.83422919
 O   +1.08299051   +0.11988486   +3.30118761
 H   +0.80060715   -4.37460648   +4.20351899
 H   +0.41207388   +0.92656536   -0.39399630
 H   +2.04647120   -5.44397965   +3.58085354
 H   +2.48641609   -4.10392745   +4.64394875
 H   +1.12507449   -3.88318946   +1.59593680
 H   +3.40280911   -2.12540581   +3.22328834
 H   +2.04577222   -2.13023045   +0.46271374
 H   +3.73423371   -1.74753348   +0.69791689
 H   +2.46384417   +0.32277151   +0.43515716
 H   +3.20475691   +0.23130639   +2.02592530
 H   +0.54211772   -0.84774801   -0.40962000
 H   -1.03975627   -0.07434261   -0.29367705
 H   +0.58728442   -4.09662608   +0.93809977
