22
 * E =  +0.000 kcal/mol ; (1) 178_167_290_245
 C   +0.00000000   +0.00000000   +0.00000000
 O   +0.00000000   +0.00000000   +1.41638378
 C   +1.20285152   +0.00000000   +1.98569611
 C   +1.11768934   +0.05411367   +3.46001765
 C   +2.39511572   -0.24977484   +4.19451482
 C   +2.76433687   -1.69230775   +4.07152883
 C   +2.81029449   -2.54645474   +5.08546462
 C   +3.17881831   -3.98373917   +4.97319842
 O   +2.22998337   -0.00925324   +1.35652136
 H   +4.05345246   -4.21281118   +5.58061404
 H   +0.50711734   +0.88191433   -0.37880377
 H   +2.37264495   -4.62483054   +5.32778906
 H   +3.40073095   -4.25530053   +3.94462137
 H   +2.57244889   -2.18437925   +6.08017269
 H   +3.00450427   -2.03424606   +3.07144294
 H   +3.18852254   +0.36929825   +3.77779907
 H   +2.27797564   +0.01632795   +5.24322821
 H   +0.84834791   +1.28180191   +3.69600466
 H   +0.23102718   -0.43824366   +3.84419496
 H   +0.50341905   -0.88417791   -0.37836651
 H   -1.04088055   +0.00200420   -0.29592461
 H   +0.67698927   +2.21587852   +3.94216506
22
 * E =  +0.463 kcal/mol ; (2) 178_165_170_120
 C   +0.00000000   +0.00000000   +0.00000000
 O   +0.00000000   +0.00000000   +1.41640672
 C   +1.20433707   +0.00000000   +1.98482034
 C   +1.11840684   +0.05729346   +3.45805659
 C   +2.38064431   -0.28725969   +4.19728690
 C   +2.29040141   +0.01571228   +5.65458874
 C   +2.42885752   -0.87911597   +6.62308440
 C   +2.35236043   -0.58159606   +8.07892124
 O   +2.23008128   -0.01159375   +1.35450923
 H   +1.56275297   -1.15986895   +8.55683358
 H   +0.50926411   +0.88075794   -0.37866235
 H   +3.28255109   -0.84325512   +8.58154606
 H   +2.15632599   +0.47235151   +8.25774257
 H   +2.61900338   -1.91152492   +6.34970702
 H   +2.10016718   +1.05071909   +5.91930755
 H   +2.60105611   -1.34621569   +4.05225253
 H   +3.20371178   +0.25887677   +3.73693326
 H   +0.90141615   +1.30104108   +3.68535208
 H   +0.20874001   -0.38543232   +3.84849293
 H   +0.50165610   -0.88514849   -0.37846373
 H   -1.04088336   +0.00438235   -0.29600775
 H   +0.77796467   +2.24750501   +3.90786350
22
 * E =  +0.660 kcal/mol ; (3) 177_166_176_240
 C   +0.00000000   +0.00000000   +0.00000000
 O   +0.00000000   +0.00000000   +1.41623898
 C   +1.20482436   +0.00000000   +1.98473174
 C   +1.12026738   +0.06132152   +3.45673694
 C   +2.39158737   -0.25330767   +4.19408250
 C   +2.25398374   -0.08991496   +5.66944778
 C   +2.97263431   +0.74676593   +6.40517395
 C   +2.84524290   +0.91618622   +7.87769312
 O   +2.23045737   -0.01332514   +1.35396533
 H   +3.78464726   +0.69082212   +8.38072124
 H   +0.51089671   +0.87975214   -0.37881371
 H   +2.59011296   +1.94389186   +8.13249656
 H   +2.07734321   +0.26482982   +8.28683052
 H   +3.71674169   +1.36069069   +5.90968202
 H   +1.50599492   -0.70641842   +6.15771912
 H   +2.67253272   -1.28337258   +3.95816927
 H   +3.19433764   +0.37122613   +3.80850566
 H   +0.87750726   +1.29974448   +3.69387424
 H   +0.21916376   -0.40090380   +3.84577775
 H   +0.49976799   -0.88611079   -0.37880703
 H   -1.04087293   +0.00648468   -0.29610032
 H   +0.73939749   +2.23468012   +3.93452916
22
 * E =  +0.782 kcal/mol ; (4) 178_166_174_359
 C   +0.00000000   +0.00000000   +0.00000000
 O   +0.00000000   +0.00000000   +1.41632326
 C   +1.20459024   +0.00000000   +1.98458391
 C   +1.11714908   +0.05782115   +3.45695679
 C   +2.38230047   -0.27220936   +4.18329974
 C   +2.34522204   -0.07840287   +5.66223177
 C   +1.32899305   +0.37519184   +6.38421707
 C   +1.35731817   +0.54917498   +7.86241014
 O   +2.22988400   -0.01154609   +1.35340225
 H   +1.17391146   +1.58672865   +8.13834486
 H   +0.50930131   +0.88065405   -0.37882201
 H   +0.58237292   -0.04648318   +8.34308755
 H   +2.31733093   +0.25348681   +8.27755262
 H   +0.40407263   +0.65059543   +5.89217956
 H   +3.26175476   -0.34255929   +6.17736902
 H   +2.64527293   -1.31199011   +3.96805566
 H   +3.19678637   +0.30947043   +3.75093557
 H   +0.88361747   +1.30367182   +3.68014620
 H   +0.21194666   -0.39988184   +3.84084153
 H   +0.50135775   -0.88525331   -0.37861018
 H   -1.04090053   +0.00455804   -0.29600239
 H   +0.74640413   +2.24667564   +3.88684056
22
 * E =  +1.010 kcal/mol ; (5) 181_328_291_111
 C   +0.00000000   +0.00000000   +0.00000000
 O   +0.00000000   +0.00000000   +1.41570887
 C   +1.20580283   +0.00000000   +1.98238501
 C   +1.13528557   -0.03445242   +3.45937122
 C   -0.03176819   +0.64813714   +4.12590189
 C   +0.06211896   +2.13210538   +3.97626950
 C   -0.76106000   +2.86294346   +3.23608428
 C   -0.67071067   +4.33751464   +3.06198427
 O   +2.22816837   -0.01481962   +1.34747771
 H   -0.54216105   +4.60046073   +2.01280363
 H   +0.50636712   +0.88285953   -0.37746409
 H   -1.58209141   +4.82869029   +3.40019629
 H   +0.16495463   +4.75227958   +3.61942510
 H   -1.56533075   +2.35777659   +2.71272446
 H   +0.87963683   +2.62023924   +4.49585607
 H   -0.96042838   +0.28919934   +3.68966394
 H   -0.03606687   +0.37570555   +5.18121040
 H   +1.00979853   -1.28114169   +3.73105473
 H   +2.10795508   +0.19012092   +3.88180856
 H   +0.50513282   -0.88293401   -0.37905601
 H   -1.04078774   +0.00066764   -0.29704379
 H   +0.87662524   -2.20738169   +4.01140397
22
 * E =  +1.019 kcal/mol ; (6) 183_335_293_245
 C   +0.00000000   +0.00000000   +0.00000000
 O   +0.00000000   +0.00000000   +1.41650257
 C   +1.20753793   +0.00000000   +1.98301954
 C   +1.14074517   -0.06944980   +3.45872828
 C   -0.10344577   +0.42397028   +4.15181387
 C   -0.26481787   +1.90171961   +4.00338784
 C   -0.22093987   +2.76969338   +5.00537702
 C   -0.37711420   +4.24266793   +4.86616494
 O   +2.22839705   +0.01116660   +1.34612015
 H   -1.22703670   +4.60320822   +5.44404492
 H   +0.50199633   +0.88490397   -0.37853006
 H   +0.50212509   +4.76665792   +5.23863563
 H   -0.52715393   +4.52839110   +3.82843990
 H   -0.06581654   +2.39251035   +6.01059877
 H   -0.42166594   +2.26450703   +2.99361843
 H   -0.96801813   -0.08851136   +3.73256680
 H   -0.04605982   +0.16368743   +5.20711129
 H   +1.18919861   -1.32406342   +3.69041149
 H   +2.07378662   +0.27412914   +3.88956016
 H   +0.51053432   -0.88039613   -0.37751293
 H   -1.04078727   -0.00512527   -0.29662612
 H   +1.18438369   -2.27641808   +3.93483456
22
 * E =  +1.132 kcal/mol ; (7) 177_156_282_002
 C   +0.00000000   +0.00000000   +0.00000000
 O   +0.00000000   +0.00000000   +1.41647734
 C   +1.20611980   +0.00000000   +1.98367732
 C   +1.12268489   +0.06732408   +3.45781464
 C   +2.30486250   -0.47535731   +4.20069817
 C   +2.35016566   -1.96889944   +4.28804133
 C   +1.48914847   -2.82022603   +3.74792319
 C   +1.58625415   -4.30161963   +3.85677178
 O   +2.23014628   -0.01150932   +1.35211317
 H   +0.69703710   -4.72124830   +4.32531031
 H   +0.50757522   +0.88188018   -0.37831035
 H   +1.67197342   -4.76151390   +2.87316543
 H   +2.45074695   -4.59907442   +4.44462367
 H   +0.64840784   -2.43991361   +3.17865034
 H   +3.18826682   -2.36761968   +4.84851256
 H   +3.21287290   -0.12098608   +3.71247930
 H   +2.31452985   -0.06218191   +5.21013199
 H   +1.12050643   +1.33051692   +3.68961629
 H   +0.14995586   -0.22102934   +3.84034666
 H   +0.50413940   -0.88382437   -0.37829062
 H   -1.04082379   +0.00219929   -0.29630610
 H   +1.15074428   +2.27000528   +3.93790713
22
 * E =  +1.193 kcal/mol ; (8) 178_173_066_120
 C   +0.00000000   +0.00000000   +0.00000000
 O   +0.00000000   +0.00000000   +1.41607485
 C   +1.20352712   +0.00000000   +1.98644801
 C   +1.10888578   +0.03642895   +3.45898513
 C   +2.39755442   -0.11697568   +4.22342775
 C   +3.36440293   +1.00539519   +4.03125048
 C   +3.81586986   +1.76874488   +5.01718111
 C   +4.78330905   +2.88755393   +4.85304038
 O   +2.22947894   -0.01140577   +1.35499954
 H   +4.35653206   +3.82885491   +5.19708675
 H   +0.50544797   +0.88285733   -0.37889985
 H   +5.68456491   +2.71675003   +5.44062130
 H   +5.07476340   +3.00731030   +3.81305460
 H   +3.46638043   +1.57719133   +6.02645190
 H   +3.70109052   +1.17782991   +3.01726996
 H   +2.16611840   -0.22215309   +5.28153364
 H   +2.86353724   -1.05304036   +3.90400049
 H   +0.67029799   +1.22602514   +3.71783155
 H   +0.27933142   -0.56099225   +3.82183435
 H   +0.50469413   -0.88321356   -0.37903038
 H   -1.04092699   +0.00081070   -0.29593262
 H   +0.37175959   +2.10754697   +3.96957283
22
 * E =  +1.306 kcal/mol ; (9) 182_332_174_120
 C   +0.00000000   +0.00000000   +0.00000000
 O   +0.00000000   +0.00000000   +1.41650907
 C   +1.20585423   +0.00000000   +1.98423296
 C   +1.13738985   -0.05196986   +3.45941556
 C   -0.07509915   +0.51681568   +4.14906852
 C   -0.05541773   +0.26586046   +5.61933493
 C   -0.06067334   +1.21213074   +6.54786575
 C   -0.04800024   +0.96945512   +8.01568429
 O   +2.22822170   +0.00322530   +1.34893568
 H   +0.81969511   +1.43387519   +8.48215118
 H   +0.50651288   +0.88231707   -0.37834524
 H   -0.92882061   +1.39866876   +8.49131829
 H   -0.02576040   -0.09347008   +8.24109059
 H   -0.07936920   +2.24894795   +6.22933515
 H   -0.03466691   -0.77414525   +5.92811457
 H   -0.12566077   +1.59072852   +3.96032694
 H   -0.96751403   +0.08283555   +3.69962847
 H   +1.10486813   -1.30996079   +3.70024875
 H   +2.08977273   +0.22906876   +3.89311642
 H   +0.50521430   -0.88328654   -0.37795282
 H   -1.04090261   +0.00080484   -0.29623027
 H   +1.02939088   -2.25988155   +3.93610802
22
 * E =  +1.393 kcal/mol ; (10) 181_324_289_000
 C   +0.00000000   +0.00000000   +0.00000000
 O   +0.00000000   +0.00000000   +1.41582585
 C   +1.20308373   +0.00000000   +1.98466162
 C   +1.12737631   -0.02002641   +3.46095908
 C   +0.01505005   +0.73907057   +4.12311661
 C   +0.15239538   +2.22803357   +4.05081596
 C   +1.14031545   +2.90443051   +3.47959620
 C   +1.22798871   +4.38988181   +3.43763055
 O   +2.22862211   -0.01899575   +1.35324642
 H   +2.13703950   +4.74225031   +3.92301119
 H   +0.50583604   +0.88334882   -0.37701613
 H   +1.25976504   +4.75151958   +2.41081289
 H   +0.37822747   +4.85189061   +3.93361671
 H   +1.95280691   +2.36710254   +3.00415320
 H   -0.65172638   +2.78379456   +4.52032027
 H   -0.93346184   +0.44672025   +3.67332010
 H   -0.04041262   +0.43967432   +5.17088339
 H   +0.89719100   -1.25831445   +3.73610420
 H   +2.11210354   +0.12558442   +3.88933610
 H   +0.50519781   -0.88298798   -0.37878983
 H   -1.04080535   +0.00138196   -0.29641903
 H   +0.68811064   -2.16155242   +4.01245702
22
 * E =  +1.447 kcal/mol ; (11) 182_334_180_240
 C   +0.00000000   +0.00000000   +0.00000000
 O   +0.00000000   +0.00000000   +1.41634299
 C   +1.20640576   +0.00000000   +1.98376708
 C   +1.13556509   -0.05329336   +3.45779974
 C   -0.09217876   +0.48910850   +4.14187768
 C   -0.01224352   +0.36636397   +5.62574835
 C   -0.86450646   -0.32242253   +6.37203281
 C   -0.79282461   -0.45286584   +7.85220656
 O   +2.22863411   +0.00252002   +1.34786400
 H   -1.69659131   -0.06917140   +8.32365208
 H   +0.50997713   +0.88030262   -0.37842648
 H   -0.70167236   -1.49689989   +8.14852279
 H   +0.05714891   +0.08990036   +8.25731536
 H   -1.68367339   -0.83545846   +5.88004449
 H   +0.81232076   +0.88000368   +6.10938186
 H   -0.20128575   +1.54126182   +3.86423855
 H   -0.97652624   -0.01865522   +3.76378690
 H   +1.12954906   -1.30966869   +3.71217856
 H   +2.08260730   +0.24901362   +3.89003513
 H   +0.50196121   -0.88516164   -0.37796247
 H   -1.04084355   +0.00463581   -0.29646587
 H   +1.07114003   -2.25127558   +3.96756058
22
 * E =  +1.654 kcal/mol ; (12) 182_334_177_357
 C   +0.00000000   +0.00000000   +0.00000000
 O   +0.00000000   +0.00000000   +1.41646504
 C   +1.20607847   +0.00000000   +1.98400812
 C   +1.14087260   -0.05533009   +3.45841071
 C   -0.08098451   +0.48407954   +4.13847726
 C   -0.10350162   +0.32850943   +5.62326474
 C   +0.80526524   -0.27584403   +6.37711510
 C   +0.72089008   -0.40340342   +7.85778149
 O   +2.22796378   +0.00324697   +1.34781924
 H   +0.71756705   -1.44949853   +8.16089896
 H   +0.50553688   +0.88282891   -0.37843159
 H   +1.57892742   +0.06187503   +8.34106023
 H   -0.18051346   +0.06425395   +8.24526231
 H   +1.67688599   -0.71998309   +5.91218371
 H   -0.96979172   +0.76013735   +6.11163731
 H   -0.17846518   +1.54616227   +3.89466734
 H   -0.96685671   +0.01691629   +3.70818175
 H   +1.14025419   -1.31819094   +3.69337849
 H   +2.08921667   +0.25089307   +3.88420763
 H   +0.50618842   -0.88274213   -0.37787132
 H   -1.04091279   -0.00040705   -0.29623036
 H   +1.09322147   -2.27009050   +3.91230692
22
 * E =  +3.341 kcal/mol ; (13) 181_354_074_240
 C   +0.00000000   +0.00000000   +0.00000000
 O   +0.00000000   +0.00000000   +1.41583200
 C   +1.20428433   +0.00000000   +1.98096107
 C   +1.15521229   -0.03407000   +3.46017795
 C   -0.17033428   +0.07232488   +4.17174178
 C   -1.01354675   -1.15866223   +4.09010811
 C   -2.22589461   -1.21230022   +3.55927207
 C   -3.07661848   -2.43110962   +3.49595318
 O   +2.22712284   +0.01527455   +1.34592494
 H   -4.02255273   -2.27790569   +4.01380854
 H   +0.49662595   +0.88761376   -0.37957861
 H   -3.31977413   -2.68556584   +2.46506129
 H   -2.57867649   -3.28555452   +3.94681422
 H   -2.63838231   -0.30780597   +3.12607289
 H   -0.58227221   -2.05954590   +4.51386183
 H   +0.03264906   +0.29680679   +5.21906543
 H   -0.72605780   +0.92029747   +3.76924543
 H   +1.63375007   -1.20129396   +3.74147895
 H   +1.94913585   +0.58633756   +3.86032341
 H   +0.51509621   -0.87767750   -0.37756756
 H   -1.04097480   -0.01135011   -0.29612705
 H   +1.98095661   -2.06652387   +3.99739109
22
 * E =  +3.952 kcal/mol ; (14) 181_002_070_358
 C   +0.00000000   +0.00000000   +0.00000000
 O   +0.00000000   +0.00000000   +1.41561350
 C   +1.20274507   +0.00000000   +1.98425493
 C   +1.14632562   -0.01459233   +3.46399233
 C   -0.17478028   -0.06458714   +4.17353298
 C   -0.95775827   -1.33550697   +4.07836296
 C   -0.64011445   -2.42831727   +3.39987580
 C   -1.46676485   -3.66554350   +3.36087006
 O   +2.22753664   +0.01342706   +1.35212959
 H   -1.77040392   -3.90198220   +2.34178631
 H   +0.49773571   +0.88702678   -0.37951898
 H   -0.90649527   -4.52374567   +3.72936974
 H   -2.36405163   -3.56197802   +3.96561085
 H   +0.27488553   -2.45146310   +2.82075377
 H   -1.88333392   -1.33341783   +4.64311073
 H   -0.00393220   +0.15494494   +5.22803997
 H   -0.79846104   +0.75428438   +3.80299825
 H   +1.81366230   -1.08816469   +3.79562804
 H   +1.83614821   +0.72540577   +3.85387737
 H   +0.51442564   -0.87807869   -0.37807131
 H   -1.04097271   -0.01030676   -0.29578708
 H   +2.30514100   -1.84782284   +4.08483343
22
 * E =  +7.862 kcal/mol ; (15) 358_173_289_245
 C   +0.00000000   +0.00000000   +0.00000000
 O   +0.00000000   +0.00000000   +1.41014462
 C   +1.14367392   +0.00000000   +2.10230659
 C   +2.42527805   -0.05427702   +1.35071310
 C   +3.65944416   +0.10939263   +2.19679864
 C   +3.79728128   +1.51500328   +2.68443533
 C   +4.78206613   +2.33453077   +2.33955029
 C   +4.93414541   +3.73363819   +2.82279839
 O   +1.10143309   +0.01010336   +3.30120541
 H   +5.87366758   +3.86270251   +3.35854878
 H   +0.37465724   +0.94206173   -0.39474659
 H   +4.94678770   +4.43760765   +1.99156874
 H   +4.12298505   +4.01100313   +3.49048135
 H   +5.54917689   +1.97005076   +1.66418314
 H   +3.02483124   +1.85518035   +3.36351627
 H   +3.58975017   -0.57014962   +3.04440651
 H   +4.53345770   -0.16791767   +1.61031405
 H   +2.46691733   -1.24701023   +0.88107833
 H   +2.43681879   +0.53625862   +0.44000289
 H   +0.57864908   -0.82699629   -0.40337470
 H   -1.03580478   -0.11689303   -0.29301281
 H   +2.57728546   -2.15443949   +0.52107999
22
 * E =  +8.390 kcal/mol ; (16) 359_169_281_102
 C   +0.00000000   +0.00000000   +0.00000000
 O   +0.00000000   +0.00000000   +1.40947064
 C   +1.14306145   +0.00000000   +2.10485194
 C   +2.42722248   -0.02552443   +1.35323859
 C   +3.64666204   +0.23428238   +2.19716540
 C   +3.79443379   +1.69853952   +2.46707530
 C   +3.46589672   +2.27944690   +3.61359716
 C   +3.58179359   +3.73504364   +3.89428396
 O   +1.09526262   -0.02057902   +3.30267802
 H   +2.61145682   +4.15890043   +4.14946803
 H   +0.36473798   +0.94542399   -0.39622493
 H   +4.23733227   +3.91822743   +4.74454899
 H   +3.97649903   +4.27682774   +3.03846096
 H   +3.07026682   +1.65609000   +4.40690523
 H   +4.16849011   +2.30816169   +1.65112774
 H   +3.54663886   -0.30949882   +3.13234923
 H   +4.52586939   -0.14443360   +1.67738370
 H   +2.51847832   -1.23118632   +0.92970819
 H   +2.41255197   +0.52444571   +0.41749265
 H   +0.58628125   -0.82185888   -0.40356686
 H   -1.03465447   -0.12734402   -0.29305380
 H   +2.66810565   -2.14328692   +0.59300516
22
 * E =  +8.429 kcal/mol ; (17) 358_174_173_119
 C   +0.00000000   +0.00000000   +0.00000000
 O   +0.00000000   +0.00000000   +1.40982124
 C   +1.14428607   +0.00000000   +2.10299715
 C   +2.42435999   -0.04495855   +1.35019104
 C   +3.65821659   +0.10513839   +2.19540139
 C   +4.91080131   -0.11997118   +1.41835217
 C   +5.86891136   +0.78154321   +1.25222026
 C   +7.12775126   +0.56110504   +0.49044589
 O   +1.10204197   +0.00681358   +3.30127123
 H   +7.22501948   +1.27823565   -0.32349254
 H   +0.37658820   +0.94103066   -0.39561366
 H   +7.99960031   +0.69117521   +1.13011915
 H   +7.16497684   -0.43942612   +0.06764552
 H   +5.74403659   +1.75794604   +1.70804155
 H   +5.02970003   -1.10058681   +0.96884969
 H   +3.66332651   +1.10332871   +2.63522028
 H   +3.58589163   -0.58895506   +3.03182698
 H   +2.46784083   -1.24014393   +0.87077384
 H   +2.43734220   +0.54129274   +0.43669108
 H   +0.57667449   -0.82814383   -0.40396542
 H   -1.03607048   -0.11458216   -0.29308652
 H   +2.57021694   -2.14822688   +0.52099385
22
 * E =  +8.596 kcal/mol ; (18) 358_175_179_241
 C   +0.00000000   +0.00000000   +0.00000000
 O   +0.00000000   +0.00000000   +1.40965972
 C   +1.14517766   +0.00000000   +2.10191857
 C   +2.42411968   -0.05171450   +1.34936055
 C   +3.65822118   +0.06978755   +2.19908159
 C   +4.91327627   -0.01760149   +1.39983145
 C   +5.84657807   -0.94545090   +1.56166004
 C   +7.10527665   -1.03909666   +0.77437829
 O   +1.10393226   +0.00962401   +3.30036394
 H   +7.97791207   -0.96806159   +1.42217370
 H   +0.37383842   +0.94244023   -0.39528701
 H   +7.17362258   -1.99558543   +0.25803635
 H   +7.16921756   -0.24738382   +0.03245504
 H   +5.69698417   -1.69907245   +2.32700533
 H   +5.05680349   +0.74073903   +0.63645728
 H   +3.60874771   +1.02752162   +2.72300697
 H   +3.63692632   -0.69220818   +2.97463980
 H   +2.46715617   -1.24041268   +0.85002371
 H   +2.44005841   +0.54785138   +0.44393301
 H   +0.57959538   -0.82617137   -0.40372014
 H   -1.03561649   -0.11728031   -0.29363816
 H   +2.58045288   -2.13661522   +0.48743443
22
 * E =  +8.825 kcal/mol ; (19) 358_174_176_357
 C   +0.00000000   +0.00000000   +0.00000000
 O   +0.00000000   +0.00000000   +1.40955837
 C   +1.14317908   +0.00000000   +2.10462708
 C   +2.42293696   -0.05627433   +1.35323031
 C   +3.64412385   +0.08186517   +2.20574768
 C   +4.94649429   -0.05808010   +1.49207784
 C   +5.13354874   -0.34140778   +0.20955306
 C   +6.46727434   -0.47203478   -0.43888165
 O   +1.09767725   +0.01378407   +3.30280290
 H   +6.59920100   -1.46457338   -0.86749155
 H   +0.38112584   +0.93923198   -0.39580636
 H   +6.58001928   +0.24128338   -1.25425587
 H   +7.27105163   -0.30161493   +0.27251005
 H   +4.27694814   -0.50074993   -0.43444874
 H   +5.82118077   +0.08805894   +2.11543794
 H   +3.60711818   +1.05584406   +2.70080529
 H   +3.58606378   -0.63587987   +3.02401518
 H   +2.45233361   -1.25563975   +0.87067570
 H   +2.43805261   +0.53649137   +0.44382667
 H   +0.57237636   -0.83130993   -0.40364707
 H   -1.03661711   -0.10936793   -0.29318419
 H   +2.53455823   -2.16157615   +0.52529786
22
 * E =  +9.035 kcal/mol ; (20) 358_177_067_120
 C   +0.00000000   +0.00000000   +0.00000000
 O   +0.00000000   +0.00000000   +1.40993245
 C   +1.14286316   +0.00000000   +2.10517083
 C   +2.42280006   -0.04724317   +1.35395277
 C   +3.67311793   +0.02162551   +2.19299174
 C   +3.89384617   -1.17107233   +3.06423987
 C   +4.95964792   -1.95621440   +2.98369479
 C   +5.20820052   -3.14418552   +3.84465331
 O   +1.09476663   +0.02567930   +3.30380479
 H   +5.31127046   -4.04817276   +3.24574529
 H   +0.37720311   +0.94136800   -0.39470748
 H   +6.13333321   -3.03279198   +4.40885866
 H   +4.39672053   -3.29571900   +4.55118386
 H   +5.71991670   -1.72914553   +2.24339385
 H   +3.12579534   -1.37531446   +3.79842366
 H   +4.52907692   +0.15625020   +1.53462073
 H   +3.59952747   +0.91556203   +2.81709172
 H   +2.45347767   -1.21606101   +0.78547354
 H   +2.43534063   +0.60262604   +0.48411357
 H   +0.57567823   -0.82805489   -0.40440735
 H   -1.03629621   -0.11240537   -0.29316944
 H   +2.56038745   -2.07958939   +0.37287608
22
 * E = +10.163 kcal/mol ; (21) 357_180_076_254
 C   +0.00000000   +0.00000000   +0.00000000
 O   +0.00000000   +0.00000000   +1.40966853
 C   +1.14202528   +0.00000000   +2.10786992
 C   +2.42527025   -0.06855783   +1.35838903
 C   +3.66222102   -0.06758655   +2.22159221
 C   +3.92997258   -1.38158164   +2.88499980
 C   +3.74229027   -1.62313327   +4.17410678
 C   +3.99560803   -2.92764162   +4.84127632
 O   +1.09225073   +0.05563811   +3.30417990
 H   +4.72259524   -2.82216455   +5.64548699
 H   +0.40035194   +0.93164579   -0.39517348
 H   +3.08261537   -3.31509012   +5.29125870
 H   +4.37047027   -3.66834325   +4.13947675
 H   +3.35362011   -0.82345322   +4.79335952
 H   +4.29150708   -2.17808167   +2.24320700
 H   +4.51444184   +0.21272870   +1.60447262
 H   +3.54025218   +0.70278742   +2.98286970
 H   +2.42089293   -1.21895994   +0.74370594
 H   +2.45916346   +0.60553284   +0.50736432
 H   +0.55374286   -0.84188157   -0.40600615
 H   -1.03895778   -0.08602838   -0.29277418
 H   +2.49186107   -2.06258086   +0.28981708
22
 * E = +15.148 kcal/mol ; (22) 356_098_063_006
 C   +0.00000000   +0.00000000   +0.00000000
 O   +0.00000000   +0.00000000   +1.40903108
 C   +1.14124268   +0.00000000   +2.11591339
 C   +2.42483185   -0.09190771   +1.35963196
 C   +3.20303809   +1.16681160   +1.06835331
 C   +3.74572497   +1.96304973   +2.21193368
 C   +3.72718979   +1.65513888   +3.50115065
 C   +4.32490414   +2.50679575   +4.56487401
 O   +1.07077800   +0.04634248   +3.30966256
 H   +3.56838248   +2.80853328   +5.28774251
 H   +0.65015239   +0.77076033   -0.40639782
 H   +5.08690710   +1.95996335   +5.11863396
 H   +4.78138730   +3.40359295   +4.15319610
 H   +3.23576179   +0.75021897   +3.82894021
 H   +4.22458837   +2.88788801   +1.90882731
 H   +4.03385940   +0.88902207   +0.41704246
 H   +2.58042715   +1.82789635   +0.45504724
 H   +3.21014651   -0.84738482   +2.15214102
 H   +2.35087871   -0.72847950   +0.48462746
 H   +0.28901051   -0.97107785   -0.39628218
 H   -1.02130347   +0.20901964   -0.29404013
 H   +3.76421858   -1.36919019   +2.65975446
