22
 * E =  +0.000 kcal/mol ; (1) 181_188_067_117_102
 C   +0.00000000   +0.00000000   +0.00000000
 O   +0.00000000   +0.00000000   +1.41699246
 C   +1.20093897   +0.00000000   +1.98816566
 C   +1.10254335   -0.02971037   +3.48224057
 C   +2.44460358   +0.17342844   +4.16598337
 C   +2.99966280   +1.54042286   +3.95922397
 C   +3.22149384   +2.42016127   +4.93764168
 C   +3.73369953   +3.77052965   +4.73423119
 O   +2.22440754   +0.00578832   +1.35791744
 H   +2.77674392   +4.59166944   +4.80125930
 H   +0.50548024   +0.88296469   -0.37811263
 H   +4.38626087   +4.14296863   +5.51658518
 H   +4.13808011   +3.95910711   +3.74553995
 H   +2.98495025   +2.13446833   +5.95643716
 H   +3.23668575   +1.81003635   +2.93705970
 H   +2.32836656   -0.01853681   +5.23098171
 H   +3.14372834   -0.56496326   +3.77354940
 H   +0.37831280   +0.72050825   +3.79330193
 H   +0.67421319   -0.99561805   +3.75081694
 H   +0.50480696   -0.88311993   -0.37890199
 H   -1.04088850   +0.00075751   -0.29590654
 H   +2.04778645   +5.29453730   +4.82310114
22
 * E =  +0.057 kcal/mol ; (2) 181_188_067_117_259
 C   +0.00000000   +0.00000000   +0.00000000
 O   +0.00000000   +0.00000000   +1.41691707
 C   +1.20102007   +0.00000000   +1.98853036
 C   +1.10221445   -0.03442664   +3.48242796
 C   +2.44379014   +0.16419051   +4.16760900
 C   +3.00570296   +1.52941940   +3.96814638
 C   +3.23496338   +2.40138410   +4.95193026
 C   +3.81748341   +3.72515531   +4.76420567
 O   +2.22450380   +0.00894038   +1.35853425
 H   +5.03729975   +3.69261731   +5.09109913
 H   +0.50538108   +0.88292524   -0.37838774
 H   +3.85899576   +4.06177584   +3.73385506
 H   +3.44232587   +4.49656781   +5.42820902
 H   +3.01159986   +2.10506265   +5.97068446
 H   +3.23378828   +1.80762638   +2.94621067
 H   +2.32762423   -0.03321014   +5.23160968
 H   +3.14226194   -0.57350818   +3.77207510
 H   +0.37891440   +0.71589376   +3.79558256
 H   +0.67180213   -1.00035180   +3.74744774
 H   +0.50496542   -0.88303555   -0.37888773
 H   -1.04087295   +0.00043663   -0.29599227
 H   +6.02264597   +3.72752638   +5.31871173
22
 * E =  +0.172 kcal/mol ; (3) 182_206_071_256_260
 C   +0.00000000   +0.00000000   +0.00000000
 O   +0.00000000   +0.00000000   +1.41723176
 C   +1.20174320   +0.00000000   +1.98591110
 C   +1.11662512   -0.04482915   +3.48184838
 C   +2.34858449   +0.56991799   +4.12997683
 C   +2.38839280   +2.04989378   +3.95376365
 C   +3.18601930   +2.68150575   +3.09048329
 C   +3.18006554   +4.12165600   +2.86266583
 O   +2.22416712   +0.00596960   +1.35466582
 H   +2.52277006   +4.36754257   +1.81610727
 H   +0.49877061   -0.88671082   -0.37867369
 H   +2.65213372   +4.70111382   +3.61282786
 H   +4.14249286   +4.55733632   +2.61742844
 H   +3.85271344   +2.08409880   +2.48047602
 H   +1.69674045   +2.63296202   +4.55305028
 H   +2.34637211   +0.31895945   +5.18981005
 H   +3.23374500   +0.12072005   +3.68558461
 H   +0.19916522   +0.44431378   +3.79962801
 H   +1.02269266   -1.09573038   +3.75846996
 H   -1.04088655   +0.00784661   -0.29593151
 H   +0.51198048   +0.87960234   -0.37681446
 H   +1.97926342   +4.63091001   +0.99931852
22
 * E =  +0.199 kcal/mol ; (4) 180_177_176_119_101
 C   +0.00000000   +0.00000000   +0.00000000
 O   +0.00000000   +0.00000000   +1.41685885
 C   +1.20245447   +0.00000000   +1.98743543
 C   +1.10391882   +0.00691378   +3.48095999
 C   +2.46345811   -0.06083819   +4.15163556
 C   +2.35623548   +0.03459998   +5.63299660
 C   +2.76055802   -0.90526861   +6.48904389
 C   +2.62415262   -0.81972468   +7.93840513
 O   +2.22513756   -0.00235076   +1.35737961
 H   +1.63864577   -1.51980468   +8.30392396
 H   +0.50713460   +0.88183843   -0.37882138
 H   +3.42816095   -1.27303833   +8.50795954
 H   +2.36677501   +0.16460923   +8.31485345
 H   +3.19788309   -1.81295957   +6.08971314
 H   +1.91616260   +0.94374264   +6.03041720
 H   +2.96466781   -0.98412314   +3.86897862
 H   +3.07946508   +0.75081331   +3.76426826
 H   +0.56435391   +0.90882639   +3.77076054
 H   +0.47043424   -0.82491889   +3.78473363
 H   +0.50346005   -0.88401476   -0.37858362
 H   -1.04088136   +0.00199024   -0.29612313
 H   +0.84785880   -2.04541010   +8.65460772
22
 * E =  +0.256 kcal/mol ; (5) 180_178_177_121_259
 C   +0.00000000   +0.00000000   +0.00000000
 O   +0.00000000   +0.00000000   +1.41684674
 C   +1.20246286   +0.00000000   +1.98772108
 C   +1.10338754   +0.00504666   +3.48117436
 C   +2.46253298   -0.05313861   +4.15261576
 C   +2.35823022   +0.03229585   +5.63473116
 C   +2.79479627   -0.89865828   +6.48485737
 C   +2.72644007   -0.79173181   +7.93752137
 O   +2.22523536   -0.00166033   +1.35795918
 H   +3.86013881   -0.45799009   +8.38379277
 H   +0.50691837   +0.88193874   -0.37886027
 H   +2.08605748   +0.00239788   +8.30660425
 H   +2.55850662   -1.72481794   +8.46430688
 H   +3.26864775   -1.78517253   +6.07967525
 H   +1.88571650   +0.92243170   +6.03798739
 H   +2.97516441   -0.96798144   +3.86316787
 H   +3.07035069   +0.76816504   +3.77182870
 H   +0.55623120   +0.90201963   +3.77194017
 H   +0.47644596   -0.83259733   +3.78294489
 H   +0.50362938   -0.88389608   -0.37865504
 H   -1.04087463   +0.00179921   -0.29616456
 H   +4.73515694   -0.17023030   +8.80218660
22
 * E =  +0.318 kcal/mol ; (6) 178_155_289_107_259
 C   +0.00000000   +0.00000000   +0.00000000
 O   +0.00000000   +0.00000000   +1.41689260
 C   +1.20210585   +0.00000000   +1.98636188
 C   +1.11486438   +0.05959151   +3.48132735
 C   +2.34616517   -0.54369597   +4.13961202
 C   +2.39376922   -2.02559330   +3.98604524
 C   +3.22817601   -2.67054095   +3.16888408
 C   +3.28303899   -4.11966816   +3.01929101
 O   +2.22429314   -0.01621623   +1.35524573
 H   +4.26618576   -4.56735354   +3.67278489
 H   +0.50418359   +0.88359038   -0.37882227
 H   +2.44744479   -4.65672494   +3.45587693
 H   +3.51530941   -4.47309522   +2.02054821
 H   +3.92978172   -2.08434850   +2.58801757
 H   +1.67246119   -2.59914097   +4.55914374
 H   +3.23274381   -0.09735616   +3.69535785
 H   +2.33841858   -0.28053936   +5.19686339
 H   +1.01598280   +1.11306331   +3.74607848
 H   +0.19801388   -0.42874558   +3.80238889
 H   +0.50701786   -0.88233093   -0.37737228
 H   -1.04083389   -0.00167770   -0.29629635
 H   +5.02224793   -4.99292807   +4.19508691
22
 * E =  +0.440 kcal/mol ; (7) 180_180_180_359_259
 C   +0.00000000   +0.00000000   +0.00000000
 O   +0.00000000   +0.00000000   +1.41684810
 C   +1.20235926   +0.00000000   +1.98738616
 C   +1.10160991   -0.00292621   +3.48048479
 C   +2.45842106   +0.00151697   +4.14241273
 C   +2.43088749   -0.00384221   +5.63167478
 C   +1.34857492   -0.00156124   +6.41276638
 C   +1.39253849   -0.04271867   +7.87051916
 O   +2.22485170   +0.00177046   +1.35697836
 H   +1.14786936   -1.21992652   +8.26151556
 H   +0.50210128   +0.88468892   -0.37881246
 H   +2.36887322   +0.14996302   +8.30248817
 H   +0.61033412   +0.51419870   +8.37500003
 H   +0.36496831   -0.00277065   +5.96039636
 H   +3.40354235   -0.00498616   +6.11038645
 H   +3.03097022   -0.85784695   +3.79114527
 H   +3.02471153   +0.86620636   +3.79449019
 H   +0.50956450   +0.86346691   +3.77430743
 H   +0.51723563   -0.87543109   +3.77164481
 H   +0.50820818   -0.88121584   -0.37872167
 H   -1.04090061   -0.00350153   -0.29604912
 H   +0.98083251   -2.14438835   +8.63428417
22
 * E =  +0.851 kcal/mol ; (8) 180_316_300_114_102
 C   +0.00000000   +0.00000000   +0.00000000
 O   +0.00000000   +0.00000000   +1.41663744
 C   +1.20413288   +0.00000000   +1.98487823
 C   +1.12006176   -0.00198548   +3.48154629
 C   +0.08092990   +0.96796671   +4.03442639
 C   +0.37054251   +2.37719350   +3.64827696
 C   -0.40517410   +3.11097201   +2.84857272
 C   -0.10015701   +4.46798028   +2.41108784
 O   +2.22377849   -0.02034621   +1.35112616
 H   +0.33938857   +4.42465207   +1.22821282
 H   +0.50978225   +0.88129687   -0.37634366
 H   -0.95696518   +5.12281195   +2.29518730
 H   +0.71008482   +4.95006476   +2.94743647
 H   -1.31151173   +2.66033174   +2.46119800
 H   +1.28801534   +2.81069476   +4.03212252
 H   -0.90534269   +0.68317314   +3.67597493
 H   +0.07377115   +0.87133092   +5.12034030
 H   +0.87853288   -1.01822493   +3.79335723
 H   +2.11555103   +0.22384950   +3.85177354
 H   +0.50130383   -0.88511928   -0.37895553
 H   -1.04077239   +0.00517023   -0.29707864
 H   +0.71450159   +4.44289129   +0.28820657
22
 * E =  +0.939 kcal/mol ; (9) 179_315_297_356_260
 C   +0.00000000   +0.00000000   +0.00000000
 O   +0.00000000   +0.00000000   +1.41682026
 C   +1.20113332   +0.00000000   +1.98696952
 C   +1.11359279   +0.01794855   +3.48408142
 C   +0.10838110   +1.01460117   +4.02988634
 C   +0.40419737   +2.44511842   +3.72851539
 C   +1.48858707   +2.92036528   +3.11187006
 C   +1.69604379   +4.33165704   +2.80476377
 O   +2.22350513   -0.03456008   +1.35613099
 H   +1.41698321   +4.52895631   +1.58885796
 H   +0.50628627   +0.88398047   -0.37473258
 H   +1.02469411   +5.01488317   +3.31428267
 H   +2.72596642   +4.66888988   +2.84391817
 H   +2.25630906   +2.23718662   +2.77135750
 H   -0.35019776   +3.15236908   +4.05443407
 H   -0.87967506   +0.77179793   +3.63865818
 H   +0.03890561   +0.88560156   +5.11138078
 H   +0.83115498   -0.98607664   +3.79907888
 H   +2.11515843   +0.20486682   +3.85968493
 H   +0.50447827   -0.88318680   -0.37895805
 H   -1.04079843   +0.00273111   -0.29642149
 H   +1.17955044   +4.74275301   +0.62896029
22
 * E =  +0.957 kcal/mol ; (10) 181_315_299_114_259
 C   +0.00000000   +0.00000000   +0.00000000
 O   +0.00000000   +0.00000000   +1.41602213
 C   +1.20391099   +0.00000000   +1.98584595
 C   +1.11523574   -0.01344900   +3.48182610
 C   +0.09422405   +0.97536461   +4.03464656
 C   +0.42692312   +2.38335779   +3.68063987
 C   -0.31094578   +3.15277621   +2.87831567
 C   +0.00294999   +4.53519535   +2.53750726
 O   +2.22398849   -0.01093933   +1.35248152
 H   -0.71378255   +5.30702866   +3.23500381
 H   +0.50382212   +0.88463681   -0.37660561
 H   +1.00842407   +4.85109270   +2.79415370
 H   -0.27330279   +4.83986271   +1.53395033
 H   -1.22567841   +2.73833248   +2.47078049
 H   +1.35038949   +2.78302277   +4.08622358
 H   -0.89364060   +0.72279393   +3.65706101
 H   +0.06715197   +0.86213419   +5.11877698
 H   +0.84890219   -1.02629370   +3.78402781
 H   +2.11332926   +0.18857165   +3.85859804
 H   +0.50773941   -0.88131293   -0.37929928
 H   -1.04069493   -0.00231277   -0.29743243
 H   -1.24156656   +5.97680765   +3.77874109
22
 * E =  +1.045 kcal/mol ; (11) 181_313_295_357_101
 C   +0.00000000   +0.00000000   +0.00000000
 O   +0.00000000   +0.00000000   +1.41639627
 C   +1.20164154   +0.00000000   +1.98707202
 C   +1.11223629   -0.01466587   +3.48361420
 C   +0.12690712   +0.98863078   +4.05324575
 C   +0.47171842   +2.42118514   +3.82136951
 C   +1.57320135   +2.88855303   +3.22931874
 C   +1.86890406   +4.30812866   +3.06720181
 O   +2.22366926   -0.01456111   +1.35495730
 H   +2.70028740   +4.66161299   +3.95177470
 H   +0.50682186   +0.88286982   -0.37650561
 H   +2.40215990   +4.56934708   +2.15973385
 H   +1.03267291   +4.97390260   +3.25310696
 H   +2.32129885   +2.19654694   +2.86357536
 H   -0.26120583   +3.13666609   +4.17698026
 H   -0.86188295   +0.78959080   +3.64013804
 H   +0.03838238   +0.81858262   +5.12778990
 H   +0.80648717   -1.01968779   +3.77251718
 H   +2.11612645   +0.14212854   +3.86639357
 H   +0.50410030   -0.88353467   -0.37882677
 H   -1.04077551   +0.00248325   -0.29665158
 H   +3.34220317   +5.01059971   +4.64930476
22
 * E =  +1.224 kcal/mol ; (12) 182_326_299_242_101
 C   +0.00000000   +0.00000000   +0.00000000
 O   +0.00000000   +0.00000000   +1.41690392
 C   +1.20455398   +0.00000000   +1.98693528
 C   +1.12931200   -0.05519826   +3.48326135
 C   -0.05833466   +0.67380887   +4.09857999
 C   -0.06099199   +2.13264981   +3.79962686
 C   +0.01258073   +3.09724763   +4.71825597
 C   -0.02145837   +4.52502918   +4.42423535
 O   +2.22317538   +0.00991872   +1.35123200
 H   -1.17945174   +4.97049322   +4.66213089
 H   +0.51489358   +0.87740250   -0.37845260
 H   +0.58263793   +5.14735806   +5.07544199
 H   +0.11798947   +4.77821009   +3.37870887
 H   +0.06688268   +2.81313984   +5.76293363
 H   -0.12193327   +2.41029389   +2.75273380
 H   -0.97613771   +0.22279509   +3.72221187
 H   -0.04125459   +0.52053558   +5.17602206
 H   +1.08925872   -1.11243381   +3.74838823
 H   +2.07152996   +0.33243463   +3.85826879
 H   +0.49757986   -0.88762928   -0.37784786
 H   -1.04071526   +0.00972523   -0.29669740
 H   -2.09096628   +5.38278247   +4.81184622
22
 * E =  +1.260 kcal/mol ; (13) 181_313_182_241_259
 C   +0.00000000   +0.00000000   +0.00000000
 O   +0.00000000   +0.00000000   +1.41674341
 C   +1.20389888   +0.00000000   +1.98716636
 C   +1.11604406   -0.02769741   +3.48153684
 C   +0.12819610   +0.98213745   +4.05703588
 C   +0.12067390   +0.95588555   +5.54545983
 C   -0.94283959   +0.65904201   +6.29410948
 C   -0.93885873   +0.59614817   +7.75094198
 O   +2.22343842   +0.00605220   +1.35227352
 H   -0.88311909   -0.61300805   +8.11212892
 H   +0.51057846   +0.87996954   -0.37824523
 H   -0.06137800   +1.02423206   +8.22367160
 H   -1.85587133   +0.91846249   +8.23199861
 H   -1.87395524   +0.41723445   +5.79486490
 H   +1.05608326   +1.19578750   +6.04019785
 H   +0.40484227   +1.97937410   +3.70993412
 H   -0.86742426   +0.77727072   +3.67154002
 H   +0.81600922   -1.03323913   +3.77594363
 H   +2.11981791   +0.13748494   +3.86089115
 H   +0.50126659   -0.88546933   -0.37811140
 H   -1.04073681   +0.00523963   -0.29674840
 H   -0.81669163   -1.55974118   +8.46201542
22
 * E =  +1.286 kcal/mol ; (14) 181_314_183_240_101
 C   +0.00000000   +0.00000000   +0.00000000
 O   +0.00000000   +0.00000000   +1.41681254
 C   +1.20383633   +0.00000000   +1.98713419
 C   +1.11732343   -0.03040922   +3.48159626
 C   +0.10279458   +0.94871239   +4.06176263
 C   +0.09789032   +0.92374929   +5.55018317
 C   -0.96071367   +0.61478114   +6.30103630
 C   -0.97320171   +0.62398203   +7.75908824
 O   +2.22335251   +0.00574841   +1.35216755
 H   -1.52948139   +1.68438066   +8.16205998
 H   +0.51105017   +0.87972578   -0.37812661
 H   -1.59792671   -0.13172984   +8.22261595
 H   +0.00557937   +0.68114604   +8.22328074
 H   -1.89269408   +0.37227333   +5.80376294
 H   +1.03302349   +1.16858589   +6.04312488
 H   +0.34991680   +1.95455994   +3.71642583
 H   -0.88778771   +0.71826833   +3.67785728
 H   +0.84736026   -1.04528356   +3.77373457
 H   +2.11687485   +0.16104279   +3.85999826
 H   +0.50082577   -0.88571331   -0.37812958
 H   -1.04074269   +0.00588967   -0.29669832
 H   -1.94376538   +2.52257326   +8.54711970
22
 * E =  +1.308 kcal/mol ; (15) 182_329_298_242_258
 C   +0.00000000   +0.00000000   +0.00000000
 O   +0.00000000   +0.00000000   +1.41705310
 C   +1.20553425   +0.00000000   +1.98518119
 C   +1.13668829   -0.05802042   +3.48178928
 C   -0.08762872   +0.59902952   +4.10593608
 C   -0.16685558   +2.05949010   +3.82467149
 C   -0.13521584   +3.01491331   +4.75522932
 C   -0.17748936   +4.44550661   +4.47609387
 O   +2.22281393   +0.01014019   +1.34751404
 H   +0.98980741   +4.92076681   +4.57138791
 H   +0.51006243   +0.88031429   -0.37822554
 H   -0.45504363   +4.70367672   +3.45976249
 H   -0.70954172   +5.04570113   +5.20621555
 H   -0.04419611   +2.72130955   +5.79475370
 H   -0.26050383   +2.34530603   +2.78255664
 H   -0.98023819   +0.10330698   +3.72571588
 H   -0.05918283   +0.43479760   +5.18156869
 H   +1.16074145   -1.11634161   +3.74486449
 H   +2.05732187   +0.38113642   +3.85410636
 H   +0.50285497   -0.88468859   -0.37766287
 H   -1.04076528   +0.00383405   -0.29674999
 H   +1.90122570   +5.35540573   +4.61279216
22
 * E =  +1.547 kcal/mol ; (16) 182_315_180_000_101
 C   +0.00000000   +0.00000000   +0.00000000
 O   +0.00000000   +0.00000000   +1.41685568
 C   +1.20367200   +0.00000000   +1.98736620
 C   +1.12167665   -0.03889272   +3.48160239
 C   +0.09715666   +0.91572812   +4.06315083
 C   -0.00459410   +0.88820011   +5.54985662
 C   +0.70857649   +0.13015808   +6.38492555
 C   +0.53155442   +0.12029715   +7.83297963
 O   +2.22299762   +0.00741645   +1.35223201
 H   -0.14394736   -0.89670452   +8.16230882
 H   +0.50528111   +0.88301676   -0.37821167
 H   +1.43705343   -0.03116083   +8.41040986
 H   -0.06664997   +0.93605009   +8.22487354
 H   +1.44834024   -0.55152287   +5.98501100
 H   -0.73817432   +1.56421931   +5.97430922
 H   +0.32778856   +1.93502123   +3.74602676
 H   -0.88080199   +0.69596030   +3.63510291
 H   +0.87012389   -1.06269705   +3.76237720
 H   +2.11990010   +0.16610383   +3.85593170
 H   +0.50660966   -0.88245244   -0.37795413
 H   -1.04080204   -0.00088468   -0.29652071
 H   -0.69816145   -1.67710530   +8.48482532
22
 * E =  +1.581 kcal/mol ; (17) 178_044_180_000_101
 C   +0.00000000   +0.00000000   +0.00000000
 O   +0.00000000   +0.00000000   +1.41684779
 C   +1.20380617   +0.00000000   +1.98730231
 C   +1.12267255   +0.03938387   +3.48164541
 C   +0.08417348   -0.89849033   +4.06526715
 C   -0.01599582   -0.86723535   +5.55203926
 C   +0.69824751   -0.10753683   +6.38469886
 C   +0.57161158   -0.14570542   +7.83760221
 O   +2.22292976   -0.00647943   +1.35194307
 H   +1.52216462   -0.82604905   +8.32029383
 H   +0.50461066   +0.88361802   -0.37794951
 H   +0.71459255   +0.80409787   +8.34132725
 H   -0.30333423   -0.67103719   +8.20551799
 H   +1.44831320   +0.56208614   +5.98358048
 H   -0.75657597   -1.53450237   +5.97818944
 H   -0.89012750   -0.66782831   +3.63505339
 H   +0.30181309   -1.92211314   +3.75247084
 H   +2.11782059   -0.17948911   +3.85636590
 H   +0.88719026   +1.06747891   +3.76104530
 H   +0.50749690   -0.88177569   -0.37812079
 H   -1.04078393   -0.00160077   -0.29659801
 H   +2.24303033   -1.37677499   +8.76389075
22
 * E =  +7.913 kcal/mol ; (18) 002_187_068_117_102
 C   +0.00000000   +0.00000000   +0.00000000
 O   +0.00000000   +0.00000000   +1.40920757
 C   +1.14155813   +0.00000000   +2.10592776
 C   +2.43466883   +0.05594801   +1.33749504
 C   +3.64630944   -0.11065825   +2.24102207
 C   +3.75221067   -1.48183795   +2.81387579
 C   +4.75898772   -2.32245428   +2.56823680
 C   +4.85124967   -3.67800381   +3.09856301
 O   +1.08932952   -0.02238490   +3.30153948
 H   +4.52057414   -4.49749326   +2.19643376
 H   +0.55351764   +0.84416517   -0.40408363
 H   +5.85395285   -4.01761483   +3.33477962
 H   +4.14855270   -3.90408593   +3.89322455
 H   +5.55817277   -1.99861956   +1.91083065
 H   +2.95000270   -1.78647299   +3.47464115
 H   +4.54341160   +0.11832923   +1.66865480
 H   +3.57177249   +0.61732365   +3.04794460
 H   +2.43423215   -0.70406518   +0.55732957
 H   +2.47363088   +1.01912590   +0.82558629
 H   +0.40460801   -0.92799875   -0.39740377
 H   -1.03861971   +0.08603035   -0.29371632
 H   +4.24534485   -5.19743623   +1.51850264
22
 * E =  +8.029 kcal/mol ; (19) 002_186_068_117_259
 C   +0.00000000   +0.00000000   +0.00000000
 O   +0.00000000   +0.00000000   +1.40903282
 C   +1.14216486   +0.00000000   +2.10581328
 C   +2.43468149   +0.05010912   +1.33641179
 C   +3.64809855   -0.11155570   +2.23804395
 C   +3.75666558   -1.47480687   +2.82897337
 C   +4.76431297   -2.31723649   +2.59234139
 C   +4.89687336   -3.63767794   +3.19718464
 O   +1.08980726   -0.01892767   +3.30132655
 H   +5.73522628   -3.57864369   +4.14071563
 H   +0.55083162   +0.84586427   -0.40416121
 H   +4.00519814   -4.00080854   +3.69670203
 H   +5.34566740   -4.39607148   +2.56463720
 H   +5.56695766   -1.99647469   +1.93758757
 H   +2.95301935   -1.77447131   +3.49022610
 H   +4.54406031   +0.11043407   +1.66111987
 H   +3.57870773   +0.62508202   +3.03788612
 H   +2.43207357   -0.71510366   +0.56125128
 H   +2.47430498   +1.00957202   +0.81775625
 H   +0.40743247   -0.92659697   -0.39788588
 H   -1.03887224   +0.08292706   -0.29379295
 H   +6.38212303   -3.59259818   +4.91774191
22
 * E =  +8.117 kcal/mol ; (20) 359_178_177_118_101
 C   +0.00000000   +0.00000000   +0.00000000
 O   +0.00000000   +0.00000000   +1.40887610
 C   +1.14424150   +0.00000000   +2.10398687
 C   +2.43396265   -0.02275017   +1.33034000
 C   +3.64123864   +0.04073361   +2.24838923
 C   +4.91809635   -0.05663242   +1.48992596
 C   +5.85588595   +0.89151934   +1.45243815
 C   +7.09114491   +0.80517314   +0.68221560
 O   +1.09643190   +0.01370858   +3.29910013
 H   +6.96693498   +1.48403854   -0.37508804
 H   +0.44323702   +0.90900585   -0.40007319
 H   +7.95549686   +1.27692444   +1.13662789
 H   +7.32331025   -0.18385198   +0.30172171
 H   +5.68682078   +1.80617920   +2.00868923
 H   +5.08571781   -0.97402605   +0.93436018
 H   +3.60971737   +0.96365721   +2.82275458
 H   +3.56392226   -0.76976628   +2.97232477
 H   +2.46084352   -0.92922712   +0.72319740
 H   +2.44877317   +0.80664376   +0.62338686
 H   +0.51771204   -0.86710434   -0.40324355
 H   -1.04120120   -0.04312155   -0.29398511
 H   +6.91612487   +1.99192756   -1.24950645
22
 * E =  +8.243 kcal/mol ; (21) 000_178_177_120_259
 C   +0.00000000   +0.00000000   +0.00000000
 O   +0.00000000   +0.00000000   +1.40862371
 C   +1.14364072   +0.00000000   +2.10516863
 C   +2.43489870   -0.01032629   +1.33385778
 C   +3.64013806   +0.03079875   +2.25524899
 C   +4.92149184   -0.04651989   +1.50221593
 C   +5.87240093   +0.88931434   +1.51901456
 C   +7.14516236   +0.79083736   +0.81427774
 O   +1.09385736   +0.00615834   +3.30019508
 H   +8.04749774   +0.45614844   +1.63272947
 H   +0.46450108   +0.89781187   -0.40116041
 H   +7.19649763   +0.00029129   +0.07309399
 H   +7.54000207   +1.72732789   +0.43568884
 H   +5.71533802   +1.77243881   +2.12732903
 H   +5.07891062   -0.93479215   +0.89832125
 H   +3.60593893   +0.93683007   +2.85565199
 H   +3.56270282   -0.79927845   +2.95723806
 H   +2.46186810   -0.90266582   +0.70630177
 H   +2.45248645   +0.83534028   +0.64625810
 H   +0.49664812   -0.87969173   -0.40272962
 H   -1.04195518   -0.01879303   -0.29392855
 H   +8.80970491   +0.16741281   +2.23121942
22
 * E =  +8.477 kcal/mol ; (22) 000_179_180_359_259
 C   +0.00000000   +0.00000000   +0.00000000
 O   +0.00000000   +0.00000000   +1.40862410
 C   +1.14272276   +0.00000000   +2.10604146
 C   +2.43305117   -0.01090499   +1.33374090
 C   +3.62860587   +0.01002017   +2.25578852
 C   +4.95060408   -0.00074833   +1.57011369
 C   +5.17398987   -0.04322258   +0.25483001
 C   +6.50093191   -0.01557747   -0.35113965
 O   +1.09121989   +0.00665362   +3.30108717
 H   +6.73650765   +1.14961114   -0.78332974
 H   +0.46224832   +0.89905131   -0.40117069
 H   +7.32055472   -0.18038264   +0.34009307
 H   +6.61133760   -0.60292974   -1.25629452
 H   +4.33416005   -0.06658709   -0.42834368
 H   +5.80997357   +0.02398051   +2.23035324
 H   +3.56368118   +0.88571956   +2.90205888
 H   +3.56537978   -0.83611524   +2.94015026
 H   +2.45331627   -0.89524301   +0.69524273
 H   +2.45069498   +0.84566796   +0.65874946
 H   +0.49841665   -0.87881716   -0.40246421
 H   -1.04192067   -0.02084645   -0.29386773
 H   +6.98848302   +2.06414807   -1.12962537
22
 * E =  +8.694 kcal/mol ; (23) 000_166_285_105_258
 C   +0.00000000   +0.00000000   +0.00000000
 O   +0.00000000   +0.00000000   +1.40863869
 C   +1.14080399   +0.00000000   +2.10864162
 C   +2.43966298   -0.01139507   +1.34420751
 C   +3.61920266   +0.33285709   +2.24119082
 C   +3.66839193   +1.78614339   +2.57250687
 C   +3.33160623   +2.30032438   +3.75636485
 C   +3.39053974   +3.71853622   +4.08732248
 O   +1.08330798   -0.02206841   +3.30323398
 H   +4.42599888   +3.94058875   +4.77491068
 H   +0.35800050   +0.94700772   -0.39780133
 H   +3.52603168   +4.38189747   +3.23940007
 H   +2.61287059   +4.06883741   +4.75711277
 H   +3.00452526   +1.62044925   +4.53307241
 H   +3.97544999   +2.45732085   +1.77664128
 H   +3.54854626   -0.25347206   +3.15340943
 H   +4.53632009   +0.04175942   +1.72993850
 H   +2.55675400   -1.01038704   +0.91940895
 H   +2.38791859   +0.67339689   +0.49941965
 H   +0.59383596   -0.81602883   -0.40484528
 H   -1.03330497   -0.13644082   -0.29390898
 H   +5.25025111   +4.19106359   +5.30675184
22
 * E =  +8.708 kcal/mol ; (24) 003_193_076_256_261
 C   +0.00000000   +0.00000000   +0.00000000
 O   +0.00000000   +0.00000000   +1.40867118
 C   +1.14118232   +0.00000000   +2.10741192
 C   +2.43798798   +0.07075418   +1.34249557
 C   +3.62984692   -0.25246369   +2.23166460
 C   +3.74179693   -1.71466909   +2.50475111
 C   +3.39332178   -2.29725520   +3.65327816
 C   +3.44701532   -3.73362877   +3.89696270
 O   +1.08551378   -0.01519770   +3.30226459
 H   +2.29184651   -4.21718793   +3.75527405
 H   +0.37374756   -0.94114165   -0.39705591
 H   +4.02723493   -4.29903662   +3.17512230
 H   +3.67610401   -4.02316303   +4.91660367
 H   +2.99692186   -1.67188858   +4.44334310
 H   +4.11483011   -2.33388574   +1.69508062
 H   +4.53440901   +0.10116273   +1.73852822
 H   +3.52497444   +0.29422204   +3.16512656
 H   +2.40842199   -0.59595203   +0.48240238
 H   +2.51926065   +1.08271950   +0.94034954
 H   -1.03556901   +0.11865209   -0.29363171
 H   +0.57962617   +0.82603626   -0.40525299
 H   +1.39579664   -4.67465414   +3.62192894
22
 * E = +10.007 kcal/mol ; (25) 005_092_176_120_101
 C   +0.00000000   +0.00000000   +0.00000000
 O   +0.00000000   +0.00000000   +1.40915969
 C   +1.13970782   +0.00000000   +2.11153183
 C   +2.44762237   +0.11206486   +1.37679682
 C   +2.87050507   +1.58001544   +1.26580488
 C   +4.21092113   +1.71858844   +0.63513140
 C   +4.45528305   +2.38514529   -0.49422206
 C   +5.76409910   +2.48946553   -1.12835447
 O   +1.08142729   -0.03727993   +3.30621460
 H   +5.81545036   +1.68335070   -2.10010468
 H   +0.57179418   +0.83082732   -0.40627225
 H   +5.96555284   +3.43254927   -1.62432542
 H   +6.59693679   +2.16980027   -0.51141858
 H   +3.62616912   +2.86637301   -1.00027728
 H   +5.03601234   +1.23509299   +1.14719338
 H   +2.13537373   +2.14708208   +0.69507321
 H   +2.88226237   +1.99957919   +2.27200263
 H   +3.17730323   -0.42743567   +1.97302988
 H   +2.41726642   -0.34210492   +0.39079983
 H   +0.38256521   -0.93790712   -0.39585648
 H   -1.03675037   +0.10933366   -0.29335797
 H   +5.92093643   +1.04184727   -2.87390820
22
 * E = +10.113 kcal/mol ; (26) 355_268_185_240_101
 C   +0.00000000   +0.00000000   +0.00000000
 O   +0.00000000   +0.00000000   +1.40901695
 C   +1.13979596   +0.00000000   +2.11151611
 C   +2.44784697   -0.11069369   +1.37684445
 C   +2.87148335   -1.57771731   +1.26202803
 C   +4.21384083   -1.71890106   +0.63609916
 C   +4.46214870   -2.39264197   -0.48831589
 C   +5.78487048   -2.56354818   -1.07737892
 O   +1.08123119   +0.03691349   +3.30613413
 H   +6.22046902   -3.71403066   -0.78699132
 H   +0.38171737   +0.93832285   -0.39582029
 H   +5.80992293   -2.59499566   -2.16109235
 H   +6.55230682   -1.91272065   -0.67246639
 H   +3.63639617   -2.88667135   -0.98752285
 H   +5.03590131   -1.22558818   +1.14370996
 H   +2.88153790   -2.00052586   +2.26715849
 H   +2.13763895   -2.14431461   +0.68923564
 H   +2.41719891   +0.34604935   +0.39194524
 H   +3.17724550   +0.42764967   +1.97449433
 H   +0.57246573   -0.83033681   -0.40635271
 H   -1.03665100   -0.11020076   -0.29343623
 H   +6.63275567   -4.60995523   -0.57014065
22
 * E = +10.275 kcal/mol ; (27) 007_090_180_242_101
 C   +0.00000000   +0.00000000   +0.00000000
 O   +0.00000000   +0.00000000   +1.40875819
 C   +1.13963643   +0.00000000   +2.11294721
 C   +2.44580503   +0.15162419   +1.38273673
 C   +2.81581247   +1.63219029   +1.25518203
 C   +4.10986766   +1.82354331   +0.54513497
 C   +5.19125768   +2.39017401   +1.08268138
 C   +6.44904269   +2.60794416   +0.37845558
 O   +1.07897008   -0.06618628   +3.30605799
 H   +6.51251071   +3.81549096   +0.01147530
 H   +0.55811122   +0.83969669   -0.40720079
 H   +7.34190355   +2.52409525   +0.98805657
 H   +6.54633296   +2.07221919   -0.55974468
 H   +5.13153673   +2.74907534   +2.10342582
 H   +4.16277366   +1.46117214   -0.47634713
 H   +2.02366354   +2.16104842   +0.72059272
 H   +2.86537533   +2.06840191   +2.25060807
 H   +3.19613966   -0.35250340   +1.98259161
 H   +2.42854772   -0.31743838   +0.40213216
 H   +0.39655602   -0.93236668   -0.39562983
 H   -1.03827554   +0.09297327   -0.29367280
 H   +6.61133820   +4.76080853   -0.33080219
22
 * E = +10.275 kcal/mol ; (28) 353_270_180_116_101
 C   +0.00000000   +0.00000000   +0.00000000
 O   +0.00000000   +0.00000000   +1.40870791
 C   +1.13996786   +0.00000000   +2.11267399
 C   +2.44563767   -0.15167684   +1.38164799
 C   +2.81434123   -1.63314679   +1.25408761
 C   +4.10438440   -1.82162316   +0.53592911
 C   +5.20045993   -2.35552618   +1.07710872
 C   +6.47694381   -2.50253760   +0.38823697
 O   +1.07949375   +0.06544497   +3.30579073
 H   +7.25409260   -1.57856019   +0.76055854
 H   +0.39684304   +0.93219887   -0.39572084
 H   +7.05005223   -3.38301588   +0.65679605
 H   +6.43605944   -2.35728541   -0.68594162
 H   +5.16012284   -2.67847658   +2.11075029
 H   +4.13921929   -1.49144560   -0.49713257
 H   +2.87193371   -2.06590791   +2.25057618
 H   +2.01814410   -2.16269158   +0.72680297
 H   +2.42772861   +0.31716624   +0.40102145
 H   +3.19714464   +0.35186505   +1.98042416
 H   +0.55795590   -0.83984802   -0.40715450
 H   -1.03830717   -0.09268680   -0.29370069
 H   +7.91239186   -0.85007803   +0.99930016
22
 * E = +10.392 kcal/mol ; (29) 006_090_179_359_259
 C   +0.00000000   +0.00000000   +0.00000000
 O   +0.00000000   +0.00000000   +1.40938551
 C   +1.13918109   +0.00000000   +2.11313905
 C   +2.44384936   +0.14426826   +1.37944562
 C   +2.80992897   +1.61713555   +1.25689221
 C   +4.10383974   +1.88405298   +0.56678610
 C   +4.95200196   +0.97278068   +0.08754209
 C   +6.19347532   +1.29601171   -0.60695346
 O   +1.08004857   -0.06267807   +3.30651755
 H   +6.01676833   +1.16388130   -1.85267619
 H   +0.56592828   +0.83412701   -0.40762545
 H   +6.50792554   +2.33067632   -0.52231369
 H   +7.01386379   +0.60793617   -0.43512310
 H   +4.71221243   -0.07873929   +0.18199352
 H   +4.36424493   +2.93135120   +0.46539946
 H   +2.01826013   +2.15925300   +0.73413186
 H   +2.83936378   +2.05062922   +2.25751046
 H   +3.18973666   -0.36841558   +1.97906916
 H   +2.41850909   -0.32231869   +0.39807093
 H   +0.38870500   -0.93576905   -0.39509952
 H   -1.03753676   +0.10163531   -0.29326784
 H   +5.92723543   +1.09735670   -2.85539324
22
 * E = +10.602 kcal/mol ; (30) 352_273_296_235_101
 C   +0.00000000   +0.00000000   +0.00000000
 O   +0.00000000   +0.00000000   +1.40911239
 C   +1.13874893   +0.00000000   +2.11550557
 C   +2.44057692   -0.19115087   +1.38779067
 C   +2.76954737   -1.68190246   +1.23020538
 C   +2.99992033   -2.37180887   +2.53038158
 C   +4.10677169   -3.05501243   +2.82592906
 C   +4.32706573   -3.76515929   +4.08010684
 O   +1.07392904   +0.09471363   +3.30711632
 H   +4.12252906   -4.99883634   +3.89816496
 H   +0.40719571   +0.92818835   -0.39470427
 H   +5.35157453   -3.77085830   +4.43588981
 H   +3.62404354   -3.52218180   +4.86930450
 H   +4.89114936   -3.12206832   +2.08043118
 H   +2.21512397   -2.28960003   +3.27263878
 H   +1.95505950   -2.17609265   +0.69552666
 H   +3.65441350   -1.77684990   +0.60359360
 H   +2.42995036   +0.28793829   +0.41271587
 H   +3.20533295   +0.28458322   +1.99282383
 H   +0.54847574   -0.84499124   -0.40848051
 H   -1.03946473   -0.08031710   -0.29321726
 H   +3.95327503   -5.99216432   +3.81992496
22
 * E = +10.730 kcal/mol ; (31) 352_273_294_234_258
 C   +0.00000000   +0.00000000   +0.00000000
 O   +0.00000000   +0.00000000   +1.40904570
 C   +1.13893858   +0.00000000   +2.11555253
 C   +2.44055185   -0.18721564   +1.38661174
 C   +2.77328937   -1.67824655   +1.23576561
 C   +3.03565252   -2.35036997   +2.53945058
 C   +4.14379952   -3.04103279   +2.81167240
 C   +4.42681546   -3.67734942   +4.09262667
 O   +1.07376977   +0.09087876   +3.30736261
 H   +5.24896916   -2.96145357   +4.73442942
 H   +0.40695273   +0.92815677   -0.39501337
 H   +3.58210115   -3.73339826   +4.77030011
 H   +4.96655872   -4.61639625   +4.03547228
 H   +4.90945635   -3.11768685   +2.04779636
 H   +2.27013481   -2.25552038   +3.30011726
 H   +1.94912697   -2.18015077   +0.72366969
 H   +3.64521545   -1.77585230   +0.59170257
 H   +2.42525983   +0.28667691   +0.40915580
 H   +3.20503237   +0.29463788   +1.98714785
 H   +0.54849027   -0.84508635   -0.40845837
 H   -1.03950572   -0.08042289   -0.29314965
 H   +5.89055014   -2.42702829   +5.30016340
22
 * E = +10.842 kcal/mol ; (32) 350_276_303_126_259
 C   +0.00000000   +0.00000000   +0.00000000
 O   +0.00000000   +0.00000000   +1.40854837
 C   +1.14154311   +0.00000000   +2.11131467
 C   +2.43781016   -0.23945603   +1.38626352
 C   +2.71898823   -1.73621679   +1.20716411
 C   +2.75825058   -2.47957303   +2.49647989
 C   +2.01934244   -3.55541971   +2.76850730
 C   +2.07760552   -4.30201132   +4.01880959
 O   +1.08764836   +0.14142357   +3.29771560
 H   +2.77291203   -5.34438970   +3.84781333
 H   +0.42223842   +0.92171828   -0.39443739
 H   +2.59911540   -3.79784652   +4.82494423
 H   +1.13533778   -4.72548939   +4.34828157
 H   +1.34291731   -3.92580286   +2.00679334
 H   +3.42458962   -2.09245987   +3.25869232
 H   +1.98086586   -2.19241910   +0.54868836
 H   +3.68186031   -1.82228949   +0.70111102
 H   +2.46249216   +0.25851795   +0.42043177
 H   +3.21141213   +0.19967453   +2.00846645
 H   +0.53408795   -0.85302165   -0.41038850
 H   -1.04047451   -0.06284885   -0.29403991
 H   +3.33599133   -6.17969648   +3.77940327
