22
 * E =  +0.000 kcal/mol ; (1) 179_168_299_233
 C   +0.00000000   +0.00000000   +0.00000000
 C   +0.00000000   +0.00000000   +1.49695631
 O   +1.23469757   +0.00000000   +1.98969762
 O   -0.98120631   +0.02235393   +2.19160081
 C   +1.32512174   +0.02305924   +3.40310172
 H   +2.38279697   +0.01973195   +3.63214909
 H   +0.85067839   +0.91543361   +3.79935897
 H   +0.83992521   -0.85072321   +3.82644894
 C   -1.37067623   -0.27948515   -0.58762148
 C   -1.95042628   -1.61217941   -0.23461549
 C   -2.40363820   -2.48929599   -1.14172480
 C   -3.06228026   -3.77775261   -0.81017222
 H   +0.35669128   +0.98095197   -0.31609736
 H   -2.17540700   -1.77129145   +0.81258569
 H   -2.24341479   -2.27716083   -2.19290430
 H   -4.04451579   -3.84985068   -1.27566097
 H   -2.47672293   -4.62016882   -1.17870939
 H   -3.18383976   -3.89489976   +0.26315638
 H   +0.73722852   -0.72254844   -0.34237253
 H   -0.32423766   -2.66174094   +0.32601034
 H   -1.31102478   -0.18500749   -1.67035946
 H   -2.05647622   +0.49057417   -0.23338192
22
 * E =  +0.101 kcal/mol ; (2) 177_155_288_097
 C   +0.00000000   +0.00000000   +0.00000000
 C   +0.00000000   +0.00000000   +1.49822153
 O   +1.23399739   +0.00000000   +1.99515748
 O   -0.98194723   +0.03047732   +2.19029298
 C   +1.31960204   +0.05994718   +3.40801996
 H   +2.37632529   +0.05458872   +3.64138647
 H   +0.85061749   +0.96640623   +3.77793405
 H   +0.82510427   -0.79762580   +3.85312898
 C   -1.27236233   -0.60288382   -0.57349284
 C   -1.31880349   -2.08586532   -0.37920067
 C   -1.96617780   -2.68701113   +0.62802972
 C   -1.94734880   -4.14792492   +0.88930818
 H   +0.10005683   +1.04168124   -0.30822753
 H   -0.63982966   -2.67590601   -0.98577901
 H   -2.57919683   -2.07447995   +1.27791403
 H   -1.61897855   -4.36024453   +1.90598302
 H   -2.94614583   -4.57255929   +0.78793512
 H   -1.28765568   -4.66872871   +0.20020297
 H   +0.89090074   -0.51364352   -0.35333671
 H   -2.60499121   -2.46646251   -1.87190394
 H   -1.32549828   -0.36412105   -1.63333898
 H   -2.12943713   -0.13992927   -0.09007160
22
 * E =  +0.365 kcal/mol ; (3) 180_182_188_223
 C   +0.00000000   +0.00000000   +0.00000000
 C   +0.00000000   +0.00000000   +1.49629728
 O   +1.23758888   +0.00000000   +1.98627073
 O   -0.97815742   -0.00045815   +2.19420440
 C   +1.33149459   -0.00091462   +3.39966681
 H   +2.38974994   -0.00447220   +3.62615661
 H   +0.85566173   +0.88355060   +3.81159970
 H   +0.84945421   -0.88220886   +3.81119342
 C   -1.40074809   +0.03744367   -0.57508088
 C   -1.44999769   -0.15241778   -2.05576535
 C   -2.21793558   +0.57173316   -2.88234844
 C   -2.35440905   +0.32504703   -4.33954330
 H   +0.59362937   +0.84638450   -0.34135851
 H   -0.98115075   -1.05079255   -2.44361930
 H   -2.74103321   +1.43060635   -2.47829740
 H   -3.39802428   +0.18796533   -4.61984520
 H   -1.98315927   +1.17389599   -4.91389151
 H   -1.80028252   -0.55795916   -4.64645518
 H   +0.54134165   -0.88613772   -0.33208656
 H   +0.30625084   +0.64715333   -2.62280937
 H   -1.88625902   +0.97195329   -0.30204313
 H   -1.98407775   -0.75213449   -0.10022685
22
 * E =  +0.371 kcal/mol ; (4) 181_188_066_098
 C   +0.00000000   +0.00000000   +0.00000000
 C   +0.00000000   +0.00000000   +1.49747185
 O   +1.23673224   +0.00000000   +1.98841374
 O   -0.97894806   -0.01553744   +2.19427059
 C   +1.32955911   -0.03058563   +3.40181857
 H   +0.85723048   -0.92609185   +3.79337570
 H   +2.38756529   -0.02706223   +3.62925676
 H   +0.84320309   +0.83926871   +3.83193234
 C   -1.38502049   +0.20364455   -0.59048559
 C   -1.93347791   +1.56543847   -0.30012942
 C   -1.89128846   +2.58601421   -1.16786740
 C   -2.35226815   +3.96584648   -0.87008147
 H   +0.69671302   +0.76278226   -0.34194976
 H   -2.21084081   +1.75732037   +0.72905210
 H   -1.55430133   +2.39119151   -2.18019399
 H   -1.56815270   +4.69597512   -1.06713417
 H   -3.19995364   +4.23746986   -1.49943493
 H   -2.65799212   +4.06503709   +0.16788400
 H   +0.41754412   -0.95667724   -0.31529145
 H   -3.85795827   +1.07577390   -0.47957859
 H   -2.05151919   -0.55567514   -0.18775667
 H   -1.33057485   +0.05333712   -1.66698198
22
 * E =  +0.522 kcal/mol ; (5) 181_200_071_245
 C   +0.00000000   +0.00000000   +0.00000000
 C   +0.00000000   +0.00000000   +1.49893652
 O   +1.23326785   +0.00000000   +1.99500765
 O   -0.98414175   -0.03570867   +2.18821528
 C   +1.31824307   -0.02651703   +3.40830807
 H   +2.37492436   -0.01776487   +3.64203823
 H   +0.82595993   +0.84387465   +3.83061130
 H   +0.84699017   -0.92237521   +3.80070959
 C   -1.32772340   +0.48218853   -0.55547324
 C   -1.58323971   +1.94526573   -0.36505335
 C   -2.57262959   +2.42716225   +0.40242830
 C   -2.89150799   +3.86738337   +0.55857826
 H   +0.83675325   +0.59851254   -0.35157865
 H   -1.05572167   +2.62559762   -1.02451655
 H   -3.13188546   +1.72517571   +1.00900973
 H   -3.93972091   +4.06555245   +0.33908689
 H   -2.71866821   +4.18916037   +1.58574804
 H   -2.28156431   +4.48462897   -0.09578451
 H   +0.19373600   -1.02615870   -0.31531792
 H   -0.11947469   +2.51948597   +0.83819896
 H   -2.12474382   -0.08301833   -0.07812608
 H   -1.36010153   +0.25497919   -1.62059995
22
 * E =  +0.563 kcal/mol ; (6) 180_180_178_103
 C   +0.00000000   +0.00000000   +0.00000000
 C   +0.00000000   +0.00000000   +1.49678532
 O   +1.23820365   +0.00000000   +1.98653109
 O   -0.97817271   -0.00083962   +2.19362921
 C   +1.33195480   -0.00167494   +3.40014413
 H   +2.39016593   -0.00082948   +3.62684707
 H   +0.85193494   +0.88013985   +3.81283237
 H   +0.85391394   -0.88563387   +3.81056585
 C   -1.40163227   -0.00221767   -0.58103206
 C   -1.36827698   +0.05724586   -2.07428533
 C   -1.57559527   -0.99870622   -2.87358149
 C   -1.46206585   -0.97409041   -4.35354006
 H   +0.56574570   +0.87092611   -0.33102614
 H   -0.97122076   +0.96592972   -2.51438409
 H   -1.91053503   -1.92602100   -2.42285749
 H   -0.77683822   -1.74208087   -4.70991330
 H   -2.42704544   -1.17231120   -4.82019148
 H   -1.10855679   -0.00977301   -4.70864293
 H   +0.56908198   -0.86520831   -0.33740338
 H   -3.10135127   +0.98472019   -2.33985242
 H   -1.95173555   +0.84365026   -0.17484008
 H   -1.93035143   -0.89457704   -0.25344486
22
 * E =  +0.590 kcal/mol ; (7) 180_181_185_340
 C   +0.00000000   +0.00000000   +0.00000000
 C   +0.00000000   +0.00000000   +1.49638735
 O   +1.23859853   +0.00000000   +1.98462211
 O   -0.97692565   -0.00054344   +2.19519320
 C   +1.33355814   -0.00704237   +3.39802942
 H   +2.39196063   -0.00813431   +3.62384382
 H   +0.85470502   +0.87371335   +3.81436285
 H   +0.85487687   -0.89203378   +3.80540865
 C   -1.39709712   +0.02466035   -0.57164043
 C   -1.45674893   -0.08627296   -2.06210198
 C   -0.45954117   +0.17593566   -2.91854545
 C   -0.59465014   +0.12528595   -4.39692533
 H   +0.59163015   +0.85415682   -0.32668129
 H   -2.44734072   -0.24116971   -2.47365112
 H   +0.53077041   +0.38362071   -2.53304518
 H   -0.29239672   +1.06722938   -4.85293076
 H   +0.04489136   -0.64900157   -4.82066773
 H   -1.61872470   -0.08365919   -4.69461325
 H   +0.54083039   -0.88532093   -0.33604802
 H   -1.31832274   -2.08173196   -2.10765346
 H   -1.90014005   +0.94261401   -0.26457758
 H   -1.97675977   -0.77967914   -0.12409057
22
 * E =  +0.834 kcal/mol ; (8) 181_312_299_101
 C   +0.00000000   +0.00000000   +0.00000000
 C   +0.00000000   +0.00000000   +1.49801584
 O   +1.23689670   +0.00000000   +1.99454754
 O   -0.97898808   -0.02023618   +2.19296344
 C   +1.32092122   -0.01257290   +3.40781787
 H   +2.37741377   -0.01704739   +3.64326809
 H   +0.83997410   +0.86810129   +3.82220822
 H   +0.83646311   -0.89727982   +3.80899181
 C   +0.93486752   +1.04342288   -0.60319501
 C   +0.53807717   +2.42983950   -0.20737533
 C   +1.14431927   +3.13052075   +0.76066131
 C   +0.70513722   +4.46525120   +1.23905369
 H   +0.30082503   -0.99503040   -0.32796807
 H   -0.40580995   +2.79469144   -0.59753185
 H   +2.04903035   +2.72195326   +1.19622432
 H   +0.53809261   +4.46195657   +2.31534320
 H   +1.46704937   +5.21904755   +1.04076159
 H   -0.21497356   +4.77829664   +0.75326850
 H   -1.02725066   +0.15454393   -0.31586271
 H   +1.29607449   +3.36498336   -1.80661322
 H   +0.91138380   +0.93905358   -1.68599159
 H   +1.95387050   +0.84487536   -0.27986392
22
 * E =  +0.852 kcal/mol ; (9) 177_300_297_343
 C   +0.00000000   +0.00000000   +0.00000000
 C   +0.00000000   +0.00000000   +1.49861386
 O   +1.23705957   +0.00000000   +1.98619729
 O   -0.97901867   -0.00527467   +2.19584053
 C   +1.33497773   +0.06663610   +3.39732756
 H   +2.39349048   +0.05413447   +3.62215246
 H   +0.87948291   +0.98285945   +3.76011066
 H   +0.83561619   -0.78275579   +3.85270379
 C   +0.70170226   +1.21573194   -0.58383458
 C   +0.07273136   +2.53480956   -0.25369871
 C   -1.17224153   +2.72266721   +0.20903450
 C   -1.77619873   +4.05874398   +0.44248501
 H   +0.51446152   -0.89922398   -0.33373851
 H   +0.63012364   +3.40435872   -0.58240870
 H   -1.76486862   +1.86808079   +0.50878231
 H   -2.72227260   +4.15986831   -0.08764498
 H   -1.99293814   +4.20304122   +1.50085807
 H   -1.11557951   +4.85882595   +0.11898968
 H   -1.03279830   -0.06398734   -0.32735342
 H   +1.02128715   +2.85054947   +1.46867388
 H   +0.73026563   +1.10999015   -1.66941165
 H   +1.73818747   +1.21886938   -0.25162671
22
 * E =  +0.931 kcal/mol ; (10) 182_215_075_346
 C   +0.00000000   +0.00000000   +0.00000000
 C   +0.00000000   +0.00000000   +1.49916041
 O   +1.23319821   +0.00000000   +2.00192965
 O   -0.98423273   -0.02687575   +2.18697898
 C   +1.31061599   -0.05393702   +3.41588457
 H   +2.36595721   -0.04723825   +3.65538413
 H   +0.81233751   +0.80489664   +3.85461418
 H   +0.83986280   -0.95904733   +3.78654795
 C   -1.14276915   +0.81106577   -0.57359590
 C   -0.96237423   +2.29454885   -0.48667181
 C   -0.05812629   +2.93720111   +0.26614781
 C   +0.02444760   +4.41491229   +0.38961402
 H   +0.96455198   +0.34101804   -0.36696197
 H   -1.74856614   +2.88254403   -0.94562667
 H   +0.70821954   +2.36982225   +0.78065699
 H   -0.03515003   +4.72556410   +1.43195160
 H   +0.97379124   +4.78604547   +0.00356598
 H   -0.77684197   +4.90439244   -0.15737864
 H   -0.10532342   -1.04247399   -0.29981042
 H   -0.04604685   +2.52516169   -2.23259865
 H   -2.05696423   +0.54268956   -0.04275666
 H   -1.29469406   +0.53130671   -1.61400831
22
 * E =  +1.269 kcal/mol ; (11) 179_046_071_348
 C   +0.00000000   +0.00000000   +0.00000000
 C   +0.00000000   +0.00000000   +1.49927572
 O   +1.23318766   +0.00000000   +1.99927005
 O   -0.98203135   +0.02960491   +2.19198611
 C   +1.31564151   +0.02181464   +3.41301775
 H   +2.37183874   +0.01224148   +3.64880343
 H   +0.84359301   +0.91667556   +3.80629493
 H   +0.82218311   -0.84904638   +3.83282918
 C   +0.95353031   -0.99606189   -0.63325981
 C   +0.56036783   -2.43362133   -0.48847392
 C   -0.39443075   -2.91680361   +0.32128722
 C   -0.68652482   -4.36377533   +0.48472760
 H   -1.02371510   -0.16420458   -0.32370583
 H   +1.23323107   -3.14224962   -0.95757728
 H   -1.04809294   -2.23312997   +0.84796301
 H   -0.64947609   -4.65599567   +1.53325569
 H   -1.68981043   -4.59845075   +0.12919073
 H   +0.01967817   -4.97843320   -0.06717437
 H   +0.28215920   +1.00673583   -0.30724218
 H   -0.44057311   -2.59081548   -2.17459882
 H   +1.94529265   -0.86194397   -0.20110589
 H   +1.05020997   -0.76132416   -1.69181615
22
 * E =  +1.392 kcal/mol ; (12) 178_033_061_101
 C   +0.00000000   +0.00000000   +0.00000000
 C   +0.00000000   +0.00000000   +1.49928526
 O   +1.23165412   +0.00000000   +2.00722011
 O   -0.98521556   +0.02945092   +2.18534310
 C   +1.30483940   +0.04770192   +3.42124545
 H   +2.35926342   +0.03102035   +3.66436609
 H   +0.84022888   +0.95543688   +3.79333491
 H   +0.79756192   -0.80810052   +3.85543410
 C   +1.15399752   -0.75570069   -0.64594907
 C   +1.15328365   -2.20570392   -0.27870041
 C   +0.69215200   -3.18106268   -1.07357077
 C   +0.59761833   -4.61154102   -0.68845897
 H   -0.96134662   -0.39634558   -0.31224608
 H   +1.37146615   -2.43824189   +0.75774722
 H   +0.41705491   -2.92919757   -2.09168621
 H   -0.41525600   -4.98897911   -0.82255722
 H   +1.24769375   -5.22607583   -1.31130928
 H   +0.88284260   -4.76256052   +0.34909574
 H   +0.02941623   +1.04683056   -0.30561340
 H   +3.10937533   -2.51135270   -0.49636570
 H   +2.09167822   -0.29504805   -0.34515923
 H   +1.07421473   -0.65312510   -1.72651557
22
 * E =  +1.434 kcal/mol ; (13) 180_306_178_101
 C   +0.00000000   +0.00000000   +0.00000000
 C   +0.00000000   +0.00000000   +1.49701648
 O   +1.23654995   +0.00000000   +1.99295008
 O   -0.97921391   -0.00560439   +2.19264650
 C   +1.32483390   -0.00910363   +3.40670165
 H   +2.38204533   -0.00693895   +3.63802124
 H   +0.84061721   +0.86924204   +3.82174226
 H   +0.84658842   -0.89625353   +3.80996815
 C   +0.82168774   +1.13799179   -0.59975726
 C   +0.83390673   +1.06323952   -2.09248532
 C   +0.06765234   +1.82086233   -2.88925704
 C   +0.00294980   +1.69705220   -4.36696452
 H   +0.40859098   -0.95546170   -0.33004281
 H   +1.35728346   +0.21897345   -2.52832366
 H   -0.50714132   +2.62218294   -2.43892422
 H   -1.02232412   +1.55406004   -4.70555254
 H   +0.36997568   +2.60319059   -4.84893934
 H   +0.59962994   +0.86120289   -4.72215220
 H   -1.03388299   +0.05025897   -0.32457346
 H   +2.57614744   +1.98181002   -2.37130818
 H   +1.83421348   +1.08425035   -0.20745188
 H   +0.40609307   +2.09428541   -0.28540577
22
 * E =  +1.473 kcal/mol ; (14) 179_048_178_102
 C   +0.00000000   +0.00000000   +0.00000000
 C   +0.00000000   +0.00000000   +1.49722575
 O   +1.23576679   +0.00000000   +1.99515663
 O   -0.97992361   +0.01351866   +2.19167501
 C   +1.32024126   +0.02101550   +3.40909517
 H   +2.37683320   +0.01849141   +3.64332302
 H   +0.84270414   +0.91252263   +3.80342392
 H   +0.83304293   -0.85273950   +3.83020725
 C   +0.92778263   -1.04477358   -0.61160283
 C   +0.84488617   -1.02877036   -2.10425348
 C   +1.76215488   -0.46037968   -2.89909058
 C   +1.65252000   -0.35488091   -4.37566441
 H   -1.02803463   -0.14741148   -0.31665536
 H   -0.10114095   -1.33100885   -2.54017781
 H   +2.68005080   -0.10009427   -2.44853624
 H   +1.76019870   +0.67735515   -4.70614977
 H   +2.44152693   -0.92579148   -4.86521140
 H   +0.69608899   -0.72897766   -4.73072221
 H   +0.30613652   +0.99242874   -0.33039657
 H   +1.31541763   -2.93839335   -2.40219841
 H   +0.65425013   -2.02897192   -0.23399952
 H   +1.94908502   -0.85463336   -0.29144767
22
 * E =  +1.475 kcal/mol ; (15) 181_315_186_222
 C   +0.00000000   +0.00000000   +0.00000000
 C   +0.00000000   +0.00000000   +1.49647912
 O   +1.23543816   +0.00000000   +1.99648379
 O   -0.98027459   -0.01823958   +2.19043828
 C   +1.31777341   -0.03248501   +3.41020620
 H   +2.37396822   -0.02438937   +3.64628162
 H   +0.82324436   +0.83373716   +3.83832532
 H   +0.84648590   -0.93096545   +3.79616694
 C   +0.99187837   +0.97809590   -0.61211227
 C   +0.88372315   +1.08859386   -2.09832955
 C   +1.93751213   +1.14150185   -2.92513911
 C   +1.84875658   +1.35252724   -4.39155108
 H   +0.23528593   -1.01211724   -0.32930037
 H   -0.09718996   +1.32749458   -2.49515863
 H   +2.92466473   +0.96789188   -2.51277033
 H   +2.44938625   +2.20588946   -4.70372561
 H   +2.22878694   +0.48563301   -4.93214873
 H   +0.82310575   +1.52377704   -4.70696156
 H   -1.01659058   +0.21079303   -0.31846811
 H   +0.30280544   -0.77682918   -2.58746959
 H   +2.00426110   +0.70046049   -0.32980520
 H   +0.81071213   +1.96703362   -0.18557728
22
 * E =  +1.501 kcal/mol ; (16) 179_133_292_347
 C   +0.00000000   +0.00000000   +0.00000000
 C   +0.00000000   +0.00000000   +1.49928206
 O   +1.23122346   +0.00000000   +2.00777907
 O   -0.98794407   +0.02012089   +2.18087015
 C   +1.29858324   +0.02434531   +3.42316242
 H   +0.81717968   +0.91737853   +3.80922952
 H   +0.80418138   -0.84796670   +3.83883469
 H   +2.35225205   +0.02161816   +3.67020786
 C   -0.96497849   -1.02650231   -0.56102337
 C   -0.57957587   -2.45514249   -0.32523534
 C   +0.61970773   -2.89044841   +0.09186086
 C   +0.97686325   -4.32539869   +0.23221298
 H   -0.31881652   +0.99471757   -0.30796728
 H   -1.28060654   -3.18803948   -0.70702321
 H   +1.36267061   -2.17474766   +0.42110429
 H   +1.88785319   -4.56147258   -0.31615191
 H   +1.16303268   -4.57885982   +1.27611590
 H   +0.18213760   -4.97051139   -0.13291192
 H   +1.01082426   -0.14507471   -0.36913446
 H   -1.58765273   -2.75289330   +1.32268210
 H   -1.05713793   -0.86955761   -1.63639648
 H   -1.95111069   -0.84478893   -0.13738895
22
 * E =  +1.545 kcal/mol ; (17) 182_339_300_234
 C   +0.00000000   +0.00000000   +0.00000000
 C   +0.00000000   +0.00000000   +1.49931005
 O   +1.22779518   +0.00000000   +2.01818463
 O   -0.99001030   -0.03848424   +2.17725789
 C   +1.28410216   -0.04484596   +3.43324502
 H   +2.33565599   -0.03265825   +3.68930376
 H   +0.77513304   +0.81439972   +3.85837921
 H   +0.81081482   -0.94953641   +3.80169806
 C   +1.27279518   +0.48519059   -0.67434234
 C   +1.67799933   +1.88817989   -0.35093559
 C   +1.92555575   +2.82436858   -1.27844547
 C   +2.41332704   +4.19477234   -0.98278186
 H   -0.20235437   -1.02989135   -0.29696736
 H   +1.96561893   +2.08092799   +0.67543461
 H   +1.71068819   +2.59381413   -2.31569807
 H   +3.33013857   +4.41384873   -1.52864289
 H   +1.67988608   +4.94181134   -1.28648079
 H   +2.60790988   +4.32593338   +0.07819762
 H   -0.86085323   +0.58680448   -0.30806323
 H   -0.02836241   +2.67375606   +0.35549709
 H   +1.14414648   +0.38988336   -1.75122048
 H   +2.09003919   -0.17855638   -0.39191835
22
 * E =  +1.579 kcal/mol ; (18) 179_054_188_225
 C   +0.00000000   +0.00000000   +0.00000000
 C   +0.00000000   +0.00000000   +1.49706538
 O   +1.23661348   +0.00000000   +1.99579035
 O   -0.97886007   +0.01001486   +2.19287465
 C   +1.32115658   +0.01773278   +3.40955516
 H   +2.37774984   +0.01637343   +3.64399068
 H   +0.84245608   +0.90766480   +3.80610988
 H   +0.83508722   -0.85749925   +3.82904737
 C   +0.81796060   -1.13786233   -0.59765805
 C   +0.98061628   -1.04880281   -2.08015868
 C   +0.82622981   -2.08513784   -2.91683221
 C   +1.08676186   -2.03533474   -4.37704066
 H   -1.03321171   -0.04409898   -0.32653227
 H   +1.43954456   -0.14179473   -2.45906221
 H   +0.43225839   -3.01330950   -2.51949832
 H   +1.79556401   -2.80583212   -4.67753396
 H   +0.17079639   -2.21296573   -4.94066316
 H   +1.48514403   -1.06979679   -4.67679567
 H   +0.41094486   +0.95461948   -0.33008548
 H   -0.67838806   -0.06642468   -2.61596261
 H   +0.36492864   -2.09339618   -0.33716209
 H   +1.80761192   -1.12159293   -0.14104126
22
 * E =  +1.647 kcal/mol ; (19) 178_043_183_340
 C   +0.00000000   +0.00000000   +0.00000000
 C   +0.00000000   +0.00000000   +1.49742557
 O   +1.23115046   +0.00000000   +2.00460367
 O   -0.98484513   +0.02216336   +2.18508652
 C   +1.30491410   +0.03775818   +3.41876983
 H   +2.35960162   +0.02498195   +3.66105534
 H   +0.83617580   +0.94046434   +3.79787786
 H   +0.80270683   -0.82397555   +3.84691323
 C   +1.00553591   -0.95050308   -0.61920803
 C   +1.05883529   -0.89764653   -2.11407667
 C   +0.10498665   -0.41954068   -2.92494291
 C   +0.17539417   -0.45759589   -4.40800913
 H   -1.01694267   -0.22419249   -0.30548309
 H   +1.88028872   -1.44185865   -2.56548265
 H   -0.75352773   +0.08220647   -2.49700763
 H   -0.69830834   -0.95191220   -4.83075037
 H   +0.19795506   +0.55015269   -4.82263941
 H   +1.06300834   -0.98285520   -4.75036034
 H   +0.22361937   +1.01773583   -0.32552443
 H   +2.28977096   +0.67745437   -2.19651806
 H   +0.77577389   -1.97487045   -0.31793466
 H   +1.99251558   -0.73563520   -0.21718582
22
 * E =  +1.661 kcal/mol ; (20) 180_025_071_231
 C   +0.00000000   +0.00000000   +0.00000000
 C   +0.00000000   +0.00000000   +1.50019033
 O   +1.22730507   +0.00000000   +2.01560268
 O   -0.99100127   +0.05065912   +2.17704276
 C   +1.28468032   +0.00939295   +3.43010079
 H   +2.33657288   +0.00348790   +3.68526807
 H   +0.79958195   +0.89697371   +3.82406032
 H   +0.78854709   -0.86928780   +3.83047569
 C   +1.23929690   -0.57972837   -0.66132213
 C   +1.38670070   -2.06186161   -0.53181327
 C   +2.49891721   -2.66549107   -0.09005822
 C   +2.69646171   -4.13534746   -0.03645614
 H   -0.90381865   -0.51821887   -0.30986172
 H   +0.61602460   -2.66757603   -0.99641330
 H   +3.29157601   -2.04563849   +0.31211838
 H   +3.59816647   -4.43216266   -0.57042980
 H   +2.81466880   -4.47259129   +0.99340599
 H   +1.85264355   -4.66581705   -0.46937724
 H   -0.12403414   +1.04124528   -0.29975435
 H   +0.26764660   -2.50307765   +1.07384177
 H   +2.12528284   -0.09038431   -0.26473341
 H   +1.19019075   -0.33674841   -1.72372105
22
 * E =  +1.718 kcal/mol ; (21) 182_322_184_341
 C   +0.00000000   +0.00000000   +0.00000000
 C   +0.00000000   +0.00000000   +1.49696761
 O   +1.23196731   +0.00000000   +2.00404107
 O   -0.98435812   -0.02589313   +2.18452157
 C   +1.30487809   -0.03776092   +3.41840501
 H   +2.35950905   -0.03050293   +3.66128026
 H   +0.80747888   +0.82706132   +3.84585994
 H   +0.83059407   -0.93747837   +3.79769206
 C   +1.08585655   +0.85284410   -0.62430486
 C   +1.03136779   +0.91753188   -2.11848868
 C   +0.39442127   +0.05851903   -2.92646721
 C   +0.44125811   +0.11830570   -4.40978653
 H   +0.11405029   -1.04042043   -0.30785116
 H   +1.70747475   +1.63230240   -2.57309504
 H   -0.25003432   -0.69747666   -2.49603510
 H   +0.77459073   -0.82888173   -4.83188748
 H   -0.54796914   +0.31600849   -4.82250424
 H   +1.11276900   +0.89995273   -4.75481126
 H   -0.98741190   +0.32200699   -0.31910310
 H   -0.29494013   +2.40296443   -2.21120688
 H   +2.06276952   +0.47523520   -0.32304138
 H   +1.02548493   +1.86469866   -0.22558797
22
 * E =  +7.734 kcal/mol ; (22) 356_169_297_232
 C   +0.00000000   +0.00000000   +0.00000000
 C   +0.00000000   +0.00000000   +1.50506710
 O   +1.18018105   +0.00000000   +2.13262730
 O   -1.00296439   +0.03634727   +2.15826406
 C   +2.38909215   -0.09359538   +1.41454167
 H   +3.17656361   +0.02382797   +2.14850709
 H   +2.48994626   -1.06579528   +0.93757575
 H   +2.47883712   +0.69339548   +0.66949864
 C   -1.38347689   -0.25766740   -0.56834505
 C   -1.95421379   -1.59829001   -0.23226012
 C   -2.43965065   -2.44885748   -1.14777914
 C   -3.09115259   -3.74433893   -0.83020879
 H   +0.36443625   +0.97660201   -0.32564496
 H   -2.14031007   -1.78634967   +0.81761429
 H   -2.31736039   -2.20636487   -2.19758165
 H   -4.09090760   -3.79756597   -1.25949626
 H   -2.52500400   -4.57731216   -1.24719029
 H   -3.17200718   -3.89373230   +0.24284088
 H   +0.70640076   -0.73689251   -0.37610775
 H   -0.30047377   -2.67049237   +0.22464498
 H   -1.34376354   -0.13966572   -1.64976884
 H   -2.05753868   +0.50528079   -0.17972490
22
 * E =  +8.079 kcal/mol ; (23) 000_181_187_225
 C   +0.00000000   +0.00000000   +0.00000000
 C   +0.00000000   +0.00000000   +1.50332005
 O   +1.18533478   +0.00000000   +2.12574770
 O   -0.99935706   +0.00004244   +2.16149051
 C   +2.39296427   +0.00535155   +1.39979638
 H   +3.18154380   -0.00144648   +2.14177844
 H   +2.48934107   -0.87809334   +0.77301140
 H   +2.48961403   +0.89896017   +0.78782388
 C   -1.40748889   +0.03288095   -0.55989288
 C   -1.46777118   -0.13802351   -2.04229214
 C   -2.22287887   +0.61383418   -2.85596268
 C   -2.37235820   +0.38901496   -4.31521855
 H   +0.57486414   +0.85136686   -0.36365902
 H   -1.02121134   -1.04146766   -2.44457033
 H   -2.72658370   +1.47740942   -2.43760915
 H   -3.42015605   +0.27559275   -4.59020798
 H   -1.98909294   +1.23860163   -4.88039651
 H   -1.83714203   -0.50017182   -4.63737091
 H   +0.53368770   -0.88354360   -0.35417899
 H   +0.30334081   +0.62958166   -2.61676467
 H   -1.89409907   +0.96048730   -0.26750037
 H   -1.97865974   -0.76528309   -0.08593880
22
 * E =  +8.333 kcal/mol ; (24) 002_186_068_098
 C   +0.00000000   +0.00000000   +0.00000000
 C   +0.00000000   +0.00000000   +1.50487586
 O   +1.18396959   +0.00000000   +2.12915748
 O   -0.99958070   -0.01984192   +2.16245203
 C   +2.39319716   +0.04176339   +1.40741567
 H   +3.17974319   -0.05053944   +2.14589302
 H   +2.47158406   -0.78190882   +0.70192076
 H   +2.51069732   +0.98669565   +0.88176578
 C   -1.39970087   +0.13954616   -0.57637785
 C   -1.99493618   +1.48548978   -0.30418338
 C   -1.98860287   +2.49214288   -1.18928807
 C   -2.49911638   +3.85922221   -0.91430312
 H   +0.64458205   +0.79773280   -0.36702670
 H   -2.27729987   +1.68215190   +0.72230829
 H   -1.64733046   +2.29197278   -2.19933108
 H   -1.74495548   +4.61476230   -1.13132628
 H   -3.36075862   +4.08599010   -1.54249241
 H   -2.80124258   +3.96672778   +0.12376557
 H   +0.45291474   -0.93594029   -0.33216960
 H   -3.89637331   +0.91699332   -0.48055077
 H   -2.03018335   -0.63735691   -0.15128015
 H   -1.34973738   -0.02678875   -1.65089983
22
 * E =  +8.383 kcal/mol ; (25) 358_168_284_096
 C   +0.00000000   +0.00000000   +0.00000000
 C   +0.00000000   +0.00000000   +1.50631031
 O   +1.18283345   +0.00000000   +2.13302932
 O   -0.99896456   +0.03502735   +2.16381911
 C   +2.39514538   -0.03326563   +1.41621561
 H   +3.17636922   +0.10236759   +2.15379061
 H   +2.53877025   -0.99151060   +0.92195262
 H   +2.45547999   +0.76934672   +0.68511961
 C   -1.37666613   -0.30237451   -0.57023225
 C   -1.71429464   -1.75720049   -0.46613057
 C   -2.43084567   -2.29149267   +0.53161552
 C   -2.69550938   -3.74242336   +0.69406643
 H   +0.33971480   +0.98687198   -0.32121038
 H   -1.19417788   -2.42373469   -1.14649052
 H   -2.87659394   -1.62050375   +1.25498793
 H   -2.37110667   -4.09041114   +1.67388690
 H   -3.76315324   -3.95103784   +0.62562802
 H   -2.18698753   -4.33046426   -0.06563037
 H   +0.73551255   -0.70910777   -0.37685914
 H   -3.10529010   -1.74952634   -1.91317200
 H   -1.39615651   +0.00637025   -1.61311796
 H   -2.11586223   +0.28990751   -0.03744037
22
 * E =  +8.521 kcal/mol ; (26) 001_181_178_102
 C   +0.00000000   +0.00000000   +0.00000000
 C   +0.00000000   +0.00000000   +1.50405998
 O   +1.18530610   +0.00000000   +2.12796673
 O   -0.99961208   -0.00381442   +2.16061803
 C   +2.39364717   +0.01438580   +1.40434345
 H   +3.18141225   +0.00461489   +2.14717911
 H   +2.49410106   -0.86388182   +0.77088012
 H   +2.48895133   +0.91355286   +0.79992457
 C   -1.40947316   +0.01923456   -0.56281181
 C   -1.39469412   +0.06148075   -2.05712493
 C   -1.61513836   -1.00399340   -2.84049019
 C   -1.52363903   -0.99776681   -4.32212638
 H   +0.56706742   +0.86177239   -0.35501913
 H   -1.00225278   +0.96388966   -2.51421593
 H   -1.94840783   -1.92393239   -2.37364289
 H   -0.85094283   -1.77595906   -4.68013335
 H   -2.49751247   -1.19330309   -4.77106006
 H   -1.16807605   -0.04068191   -4.69435782
 H   +0.54104007   -0.87673424   -0.35718289
 H   -3.12911312   +0.98775464   -2.30068044
 H   -1.93631729   +0.87875798   -0.15571354
 H   -1.94807634   -0.85870974   -0.21458626
22
 * E =  +8.609 kcal/mol ; (27) 359_178_184_338
 C   +0.00000000   +0.00000000   +0.00000000
 C   +0.00000000   +0.00000000   +1.50367116
 O   +1.18546593   +0.00000000   +2.12651986
 O   -0.99869533   +0.00739253   +2.16191503
 C   +2.39400223   -0.02744930   +1.40372179
 H   +3.18134046   -0.00112233   +2.14663285
 H   +2.49053629   -0.93897990   +0.81843333
 H   +2.49407348   +0.83798757   +0.75264289
 C   -1.40381201   -0.05875768   -0.55337531
 C   -1.47654101   -0.15335503   -2.04427694
 C   -0.52137670   +0.20414772   -2.91408773
 C   -0.67913976   +0.16331063   -4.39058425
 H   +0.52204334   +0.89464043   -0.34170271
 H   -2.45685448   -0.38806898   -2.44231947
 H   +0.45504887   +0.49112801   -2.54374942
 H   -0.46759412   +1.13427946   -4.83664363
 H   +0.01582557   -0.54710429   -4.83823641
 H   -1.68705169   -0.12823937   -4.67326245
 H   +0.58256792   -0.84711187   -0.36551500
 H   -1.15696676   -2.13010848   -2.11088263
 H   -1.95997537   +0.81824777   -0.22151006
 H   -1.92112501   -0.90542732   -0.10839326
22
 * E =  +9.237 kcal/mol ; (28) 001_188_080_335
 C   +0.00000000   +0.00000000   +0.00000000
 C   +0.00000000   +0.00000000   +1.50536340
 O   +1.18660268   +0.00000000   +2.12687559
 O   -0.99681671   -0.02581478   +2.16583728
 C   +2.39511715   +0.03133945   +1.40259989
 H   +3.18186233   -0.06848937   +2.13992652
 H   +2.46465115   -0.79268594   +0.69672846
 H   +2.52089195   +0.97490367   +0.87644911
 C   -1.37914839   +0.19475112   -0.59285245
 C   -1.86059150   +1.61201010   -0.62907693
 C   -1.47227959   +2.60436420   +0.18022158
 C   -2.03976730   +3.97627959   +0.15149827
 H   +0.68332770   +0.75966300   -0.37959341
 H   -2.70660528   +1.79419385   -1.28133813
 H   -0.67705955   +2.43156658   +0.89421658
 H   -2.44076763   +4.25136849   +1.12608833
 H   -1.27416821   +4.71220601   -0.09369069
 H   -2.83704464   +4.06089860   -0.58207757
 H   +0.40969366   -0.96039558   -0.31668289
 H   -0.71700243   +2.12906935   -2.23423699
 H   -2.09440382   -0.40166177   -0.02582809
 H   -1.37846299   -0.19480212   -1.60855461
22
 * E = +10.762 kcal/mol ; (29) 347_278_300_105
 C   +0.00000000   +0.00000000   +0.00000000
 C   +0.00000000   +0.00000000   +1.50348054
 O   +1.17888907   +0.00000000   +2.14432628
 O   -1.00487613   +0.05556997   +2.14951583
 C   +2.38548699   -0.27399078   +1.47081060
 H   +3.16762231   -0.16253460   +2.21169453
 H   +2.40207085   -1.29375359   +1.09231491
 H   +2.56979153   +0.42169304   +0.65638737
 C   +0.20578359   +1.41124507   -0.56700881
 C   -0.86137831   +2.35990057   -0.12651998
 C   -0.67977754   +3.30188041   +0.80741796
 C   -1.75094332   +4.17509623   +1.34552390
 H   +0.75496867   -0.67049724   -0.40338199
 H   -1.87194589   +2.13121269   -0.44411049
 H   +0.32351457   +3.46966768   +1.18268442
 H   -1.83071660   +4.06470702   +2.42595128
 H   -1.53650881   +5.22499557   +1.14724798
 H   -2.71562648   +3.93508304   +0.90755325
 H   -0.97384638   -0.37311824   -0.30106902
 H   -0.84912010   +3.51418161   -1.76380137
 H   +0.21636131   +1.33023006   -1.65227893
 H   +1.17812256   +1.80375692   -0.27265377
22
 * E = +10.810 kcal/mol ; (30) 005_289_304_341
 C   +0.00000000   +0.00000000   +0.00000000
 C   +0.00000000   +0.00000000   +1.51042823
 O   +1.15944073   +0.00000000   +2.17356358
 O   -1.01583540   -0.05129707   +2.14400722
 C   +2.41289426   +0.11032806   +1.54392635
 H   +3.13440150   -0.29653005   +2.24243799
 H   +2.46280715   -0.45608745   +0.61765167
 H   +2.65109932   +1.15414592   +1.35501053
 C   +0.44585123   +1.28791068   -0.68127756
 C   -0.30613010   +2.52392944   -0.29527564
 C   -1.51315512   +2.56721485   +0.28306190
 C   -2.24667666   +3.82467942   +0.57372047
 H   +0.61528817   -0.82404207   -0.35943478
 H   +0.11919240   +3.45134266   -0.66113948
 H   -1.97271870   +1.65074167   +0.62842478
 H   -3.23888657   +3.81095449   +0.12469789
 H   -2.39035278   +3.94357439   +1.64722704
 H   -1.71406615   +4.69606122   +0.20191220
 H   -1.02449340   -0.22816797   -0.27648717
 H   +0.81299892   +2.90379976   +1.36738240
 H   +0.33562495   +1.13884569   -1.75705830
 H   +1.50813497   +1.45971892   -0.52511748
