22
 * E =  +0.000 kcal/mol ; (1) 183_190_067_117_080
 C   +0.00000000   +0.00000000   +0.00000000
 O   +0.00000000   +0.00000000   +1.38155166
 C   +1.19836477   +0.00000000   +1.98986706
 C   +1.04995511   -0.06118458   +3.47609001
 C   +2.35890114   +0.17549052   +4.20974455
 C   +2.87505770   +1.56557757   +4.04631970
 C   +3.02862580   +2.43144312   +5.03937639
 C   +3.54501643   +3.81926789   +4.88995230
 O   +2.23184733   +0.03268647   +1.38430131
 H   +2.81796460   +4.54997725   +5.24223100
 H   +0.21190473   -1.26307767   -0.40356961
 H   +4.44975529   +3.96685889   +5.47839640
 H   +3.77653712   +4.04436723   +3.85223942
 H   +2.76976064   +2.11851136   +6.04566199
 H   +3.13854236   +1.86062067   +3.03727560
 H   +2.20955990   -0.03787686   +5.26652997
 H   +3.09621697   -0.53410641   +3.83482392
 H   +0.28899565   +0.65716678   +3.77482450
 H   +0.64554245   -1.04699552   +3.70832654
 H   -0.99079485   +0.24208845   -0.35596740
 H   +0.82042896   +0.55369516   -0.43813440
 H   +0.35293134   -2.15394263   -0.62769236
22
 * E =  +0.014 kcal/mol ; (2) 180_189_067_117_280
 C   +0.00000000   +0.00000000   +0.00000000
 O   +0.00000000   +0.00000000   +1.38169003
 C   +1.19892765   +0.00000000   +1.98854609
 C   +1.05276019   -0.00933384   +3.47631373
 C   +2.36987301   +0.21829272   +4.19828465
 C   +2.91765922   +1.59015059   +3.98992297
 C   +3.10321779   +2.47921760   +4.95661285
 C   +3.65032711   +3.84958806   +4.76238189
 O   +2.23161918   -0.01482478   +1.38083136
 H   +2.94477469   +4.60677305   +5.10219456
 H   +0.22034148   +1.26169503   -0.40390620
 H   +4.56529952   +3.99193109   +5.33614895
 H   +3.87419813   +4.04017839   +3.71616210
 H   +2.84820508   +2.20091505   +5.97402577
 H   +3.17586629   +1.85075311   +2.97013196
 H   +2.22010207   +0.04107432   +5.26168154
 H   +3.08858958   -0.51980616   +3.84256522
 H   +0.31208495   +0.73905072   +3.75115338
 H   +0.62322591   -0.97546177   +3.74382801
 H   +0.81660753   -0.55877120   -0.43887752
 H   -0.99252224   -0.23524073   -0.35571599
 H   +0.36733105   +2.15096853   -0.62870461
22
 * E =  +0.092 kcal/mol ; (3) 179_178_177_120_280
 C   +0.00000000   +0.00000000   +0.00000000
 O   +0.00000000   +0.00000000   +1.38146925
 C   +1.19953398   +0.00000000   +1.98958559
 C   +1.05023996   +0.03090984   +3.47563561
 C   +2.38411728   -0.01886665   +4.19582232
 C   +2.22284632   +0.09010591   +5.67343585
 C   +2.60644541   -0.82915232   +6.54886818
 C   +2.45424524   -0.72132623   +8.02517625
 O   +2.23270477   -0.02579218   +1.38435646
 H   +1.85693674   -1.54224416   +8.41974080
 H   +0.21321960   +1.26260471   -0.40379530
 H   +3.42167704   -0.76825050   +8.52344089
 H   +1.97434177   +0.21246419   +8.30653674
 H   +3.07536255   -1.73322017   +6.17549381
 H   +1.75459248   +0.99743348   +6.04269071
 H   +2.90214067   -0.94129957   +3.94167156
 H   +3.00838530   +0.79324387   +3.82317865
 H   +0.49517973   +0.93416946   +3.73022249
 H   +0.40979177   -0.79938043   +3.77034490
 H   +0.81949353   -0.55473522   -0.43862679
 H   -0.99115132   -0.24076624   -0.35599515
 H   +0.35524252   +2.15342795   -0.62798893
22
 * E =  +0.102 kcal/mol ; (4) 181_179_177_120_081
 C   +0.00000000   +0.00000000   +0.00000000
 O   +0.00000000   +0.00000000   +1.38148161
 C   +1.19960617   +0.00000000   +1.98936850
 C   +1.05080552   -0.02428725   +3.47559872
 C   +2.38657723   -0.05222398   +4.19346337
 C   +2.22370159   -0.00596675   +5.67421199
 C   +2.64102970   -0.94425974   +6.51326247
 C   +2.48691364   -0.89951468   +7.99260850
 O   +2.23265646   +0.02331333   +1.38381127
 H   +1.91934661   -1.75577006   +8.35460332
 H   +0.20979492   -1.26309382   -0.40370081
 H   +3.45599586   -0.93187024   +8.48881388
 H   +1.97477303   +0.00509259   +8.31020252
 H   +3.14107475   -1.81592556   +6.10496193
 H   +1.72378909   +0.86898318   +6.07851001
 H   +2.93719748   -0.94469052   +3.90361324
 H   +2.98059260   +0.79571902   +3.85234998
 H   +0.46274516   +0.84753552   +3.76357453
 H   +0.44220518   -0.88833876   +3.73904387
 H   -0.99041729   +0.24350765   -0.35617474
 H   +0.82136285   +0.55222995   -0.43833739
 H   +0.34951880   -2.15418146   -0.62835031
22
 * E =  +0.214 kcal/mol ; (5) 176_155_289_107_280
 C   +0.00000000   +0.00000000   +0.00000000
 O   +0.00000000   +0.00000000   +1.38137021
 C   +1.19957408   +0.00000000   +1.98786496
 C   +1.06268022   +0.08506807   +3.47515720
 C   +2.26438467   -0.51772662   +4.18557674
 C   +2.30028461   -2.00460007   +4.06128759
 C   +3.15665099   -2.67255020   +3.30014377
 C   +3.18956499   -4.15182878   +3.14665670
 O   +2.23173766   -0.03896867   +1.38136828
 H   +3.04593706   -4.43946308   +2.10595576
 H   +0.22123846   +1.26156067   -0.40386808
 H   +4.15316450   -4.55631168   +3.45377290
 H   +2.41603297   -4.63081238   +3.74161315
 H   +3.88793056   -2.10606077   +2.73483508
 H   +1.55003171   -2.55654054   +4.61890582
 H   +3.17062858   -0.08915459   +3.76361543
 H   +2.22425737   -0.23130973   +5.23579620
 H   +0.96213760   +1.14437558   +3.71599466
 H   +0.13075984   -0.38996011   +3.77217709
 H   +0.81638014   -0.55971109   -0.43791319
 H   -0.99255145   -0.23481862   -0.35602394
 H   +0.36833239   +2.15124428   -0.62865029
22
 * E =  +0.240 kcal/mol ; (6) 181_209_070_254_280
 C   +0.00000000   +0.00000000   +0.00000000
 O   +0.00000000   +0.00000000   +1.38133296
 C   +1.19962633   +0.00000000   +1.98664509
 C   +1.06787138   -0.02855497   +3.47675749
 C   +2.25134787   +0.64884516   +4.15172684
 C   +2.24032618   +2.12616502   +3.93935807
 C   +3.05920266   +2.76986572   +3.11834677
 C   +3.03798140   +4.23553702   +2.86606478
 O   +2.23129348   -0.00846137   +1.37761766
 H   +3.99441452   +4.69110422   +3.11931853
 H   +0.22693983   +1.26124311   -0.40282854
 H   +2.85845108   +4.44590367   +1.81259303
 H   +2.26291121   +4.72806644   +3.44775777
 H   +3.79715184   +2.19111279   +2.57442404
 H   +1.48246980   +2.68869658   +4.47545359
 H   +2.21931706   +0.42136816   +5.21645368
 H   +3.16991397   +0.22423763   +3.75312763
 H   +0.12195515   +0.42764076   +3.75743696
 H   +1.00911488   -1.07899299   +3.76559014
 H   +0.81461544   -0.56136122   -0.43927898
 H   -0.99350154   -0.23032139   -0.35623210
 H   +0.37885934   +2.14969865   -0.62577801
22
 * E =  +0.338 kcal/mol ; (7) 181_181_180_000_080
 C   +0.00000000   +0.00000000   +0.00000000
 O   +0.00000000   +0.00000000   +1.38149179
 C   +1.19959783   +0.00000000   +1.98905804
 C   +1.04883421   -0.02709271   +3.47476294
 C   +2.38149039   -0.01208386   +4.18376460
 C   +2.29744883   -0.03802933   +5.67298962
 C   +1.19516418   -0.07238721   +6.41061431
 C   +1.17627902   -0.09799777   +7.89931383
 O   +2.23229621   +0.02433718   +1.38288571
 H   +0.63668297   +0.75874695   +8.30091550
 H   +0.21230378   -1.26286792   -0.40386242
 H   +0.67309693   -0.98965600   +8.27106314
 H   +2.18359558   -0.08403012   +8.30745723
 H   +0.22698911   -0.08411103   +5.92416364
 H   +3.25342627   -0.02740843   +6.18461535
 H   +2.97774418   -0.85797542   +3.84058809
 H   +2.94388802   +0.86752494   +3.86916569
 H   +0.43194317   +0.82423793   +3.76214705
 H   +0.46885221   -0.91357243   +3.73107756
 H   -0.99097637   +0.24143473   -0.35599305
 H   +0.81997516   +0.55411621   -0.43847932
 H   +0.35348822   -2.15349589   -0.62859845
22
 * E =  +0.445 kcal/mol ; (8) 177_310_302_111_277
 C   +0.00000000   +0.00000000   +0.00000000
 O   +0.00000000   +0.00000000   +1.37972352
 C   +1.19961443   +0.00000000   +1.99156062
 C   +1.04961560   +0.07006776   +3.47826720
 C   +0.11770396   +1.19754683   +3.91564313
 C   +0.59536587   +2.52702838   +3.43660358
 C   -0.01209120   +3.24580658   +2.50172801
 C   +0.46970754   +4.55016804   +1.97464674
 O   +2.23190052   -0.06500097   +1.38883226
 H   +0.64875193   +4.48967540   +0.90197793
 H   +0.15771808   +1.27203084   -0.39620206
 H   -0.27071066   +5.33393460   +2.12882806
 H   +1.39468353   +4.85556103   +2.45655117
 H   -0.93064120   +2.85908446   +2.07328239
 H   +1.52368972   +2.89352675   +3.86221187
 H   -0.88158451   +1.00519051   +3.53198392
 H   +0.05675336   +1.18395545   +5.00356456
 H   +0.66273331   -0.88881279   +3.82292566
 H   +2.04701456   +0.19387689   +3.88857833
 H   +0.84237021   -0.51828405   -0.43965053
 H   -0.98008980   -0.27899288   -0.35926551
 H   +0.25962114   +2.17065212   -0.61716500
22
 * E =  +0.723 kcal/mol ; (9) 181_142_291_359_081
 C   +0.00000000   +0.00000000   +0.00000000
 O   +0.00000000   +0.00000000   +1.38143123
 C   +1.20117798   +0.00000000   +1.98795580
 C   +1.07014939   -0.01933283   +3.47897875
 C   +2.13240178   -0.88659208   +4.12317065
 C   +1.98919654   -2.35112151   +3.86725699
 C   +1.03410682   -2.94416709   +3.16330343
 C   +0.95055906   -4.41054049   +2.92063682
 O   +2.23255165   +0.04113388   +1.38123349
 H   +0.01203451   -4.81878266   +3.29324826
 H   +0.18981227   -1.26992497   -0.39150552
 H   +0.98978873   -4.63105962   +1.85472500
 H   +1.76678765   -4.93939591   +3.40592059
 H   +0.24869203   -2.34769602   +2.71310816
 H   +2.76513751   -2.97104850   +4.30222273
 H   +3.10916125   -0.56008442   +3.76541760
 H   +2.12896953   -0.70854732   +5.19901607
 H   +1.18733167   +1.01140113   +3.81292299
 H   +0.06628076   -0.33253689   +3.75129132
 H   -0.98697812   +0.25510926   -0.35754467
 H   +0.82983281   +0.53767703   -0.43993547
 H   +0.31328075   -2.16883464   -0.59475665
22
 * E =  +0.755 kcal/mol ; (10) 181_312_300_114_080
 C   +0.00000000   +0.00000000   +0.00000000
 O   +0.00000000   +0.00000000   +1.38058563
 C   +1.20156907   +0.00000000   +1.98597925
 C   +1.06377984   -0.02875356   +3.47512831
 C   +0.06649600   +0.99675182   +4.00524583
 C   +0.45845819   +2.39310950   +3.65798164
 C   -0.22691326   +3.18365897   +2.84277744
 C   +0.16015224   +4.57083013   +2.46969766
 O   +2.23126360   +0.00731407   +1.37491967
 H   +0.28766570   +4.66571988   +1.39222712
 H   +0.21889627   -1.26100419   -0.40671030
 H   -0.61012883   +5.28415191   +2.75984720
 H   +1.09126537   +4.86406859   +2.94726625
 H   -1.14412096   +2.80043551   +2.40839145
 H   +1.38347031   +2.75979097   +4.09096556
 H   -0.92135442   +0.78012753   +3.60538640
 H   +0.00970952   +0.88131258   +5.08763765
 H   +0.74713451   -1.03332801   +3.75557532
 H   +2.05657036   +0.13059876   +3.88460670
 H   -0.99203190   +0.23629422   -0.35703210
 H   +0.81754179   +0.55843343   -0.43740493
 H   +0.36323220   -2.14989250   -0.63674956
22
 * E =  +0.811 kcal/mol ; (11) 183_217_070_001_080
 C   +0.00000000   +0.00000000   +0.00000000
 O   +0.00000000   +0.00000000   +1.38176982
 C   +1.20183114   +0.00000000   +1.98592622
 C   +1.07494368   -0.07030155   +3.47576333
 C   +2.11948593   +0.77782700   +4.17114921
 C   +1.93096079   +2.25246031   +4.02856580
 C   +0.94639544   +2.86969163   +3.38892886
 C   +0.81363175   +4.34808129   +3.27097184
 O   +2.23213292   +0.02924401   +1.37663907
 H   +0.82469385   +4.66073008   +2.22762344
 H   +0.22098855   -1.26221142   -0.40295782
 H   -0.12864834   +4.69381629   +3.69399152
 H   +1.62313862   +4.85996784   +3.78480794
 H   +0.17080069   +2.28595840   +2.90585183
 H   +2.69507564   +2.86039299   +4.49994778
 H   +2.13496293   +0.52164355   +5.23098076
 H   +3.10071624   +0.50760414   +3.78037503
 H   +0.06469423   +0.20075062   +3.76895149
 H   +1.21535114   -1.11722868   +3.74403130
 H   -0.99247504   +0.23475918   -0.35624597
 H   +0.81733758   +0.55878636   -0.43738950
 H   +0.36785745   -2.15164336   -0.62641244
22
 * E =  +0.868 kcal/mol ; (12) 179_317_297_356_281
 C   +0.00000000   +0.00000000   +0.00000000
 O   +0.00000000   +0.00000000   +1.38088705
 C   +1.19910089   +0.00000000   +1.98603821
 C   +1.06897182   +0.03175465   +3.47712293
 C   +0.02204439   +1.00161679   +3.99131891
 C   +0.28214352   +2.43935216   +3.68114450
 C   +1.35097870   +2.93873673   +3.07365371
 C   +1.55190151   +4.38359534   +2.77730878
 O   +2.22984504   -0.05406190   +1.37657969
 H   +2.46018230   +4.75813896   +3.24730720
 H   +0.24412985   +1.26186135   -0.39535380
 H   +1.66021918   +4.54860006   +1.70619631
 H   +0.71545778   +4.98154587   +3.13001646
 H   +2.14643217   +2.27703334   +2.75210188
 H   -0.49959114   +3.12447598   +3.99004140
 H   -0.94985250   +0.72293000   +3.58477179
 H   -0.06120688   +0.87830574   +5.07217432
 H   +0.81185964   -0.97905164   +3.79370128
 H   +2.05542215   +0.25211445   +3.87405104
 H   +0.80752176   -0.57113505   -0.43964203
 H   -0.99639500   -0.21649772   -0.35666946
 H   +0.41055948   +2.15046086   -0.60442422
22
 * E =  +0.891 kcal/mol ; (13) 181_313_296_356_080
 C   +0.00000000   +0.00000000   +0.00000000
 O   +0.00000000   +0.00000000   +1.38081629
 C   +1.19856677   +0.00000000   +1.98789640
 C   +1.06012656   -0.03100125   +3.47782047
 C   +0.06020955   +0.96933616   +4.02829402
 C   +0.41235084   +2.40490373   +3.81359759
 C   +1.52617491   +2.87576388   +3.26680412
 C   +1.82542299   +4.32270765   +3.08361419
 O   +2.23088743   -0.00005998   +1.37910499
 H   +2.73633437   +4.60345507   +3.61055379
 H   +0.21276938   -1.26297540   -0.40502632
 H   +1.98553933   +4.55939700   +2.03267621
 H   +1.01483606   +4.94599134   +3.45250771
 H   +2.28713894   +2.18759236   +2.91860109
 H   -0.33377141   +3.11571482   +4.15150216
 H   -0.91723592   +0.77253867   +3.58844369
 H   -0.05469434   +0.78848288   +5.09810900
 H   +0.74294615   -1.03900025   +3.74373986
 H   +2.05222307   +0.11841898   +3.89270634
 H   -0.99080983   +0.24182420   -0.35635640
 H   +0.82036593   +0.55423527   -0.43734836
 H   +0.35307023   -2.15283723   -0.63211253
22
 * E =  +1.034 kcal/mol ; (14) 178_299_178_118_279
 C   +0.00000000   +0.00000000   +0.00000000
 O   +0.00000000   +0.00000000   +1.38106876
 C   +1.20022380   +0.00000000   +1.99151747
 C   +1.05109395   +0.04773640   +3.47687449
 C   +0.33750948   +1.31246554   +3.95215717
 C   +0.14841299   +1.31495232   +5.43024876
 C   +0.66608720   +2.21089004   +6.25944216
 C   +0.47796208   +2.21943872   +7.73530293
 O   +2.23203420   -0.03342617   +1.38423314
 H   +1.43433147   +2.15663328   +8.25263743
 H   +0.19742756   +1.26515015   -0.40094740
 H   +0.00207805   +3.14223264   +8.06433676
 H   -0.13895455   +1.38595529   +8.06090753
 H   +1.27311085   +3.00824978   +5.84439627
 H   -0.45850194   +0.51279701   +5.83835300
 H   +0.90959754   +2.18938773   +3.65273564
 H   -0.62842033   +1.37269568   +3.45136043
 H   +0.48204204   -0.82777939   +3.78861555
 H   +2.04439730   -0.02061726   +3.90709660
 H   +0.82651452   -0.54453369   -0.43818046
 H   -0.98807525   -0.25175534   -0.35701379
 H   +0.32744610   +2.15976741   -0.61999844
22
 * E =  +1.038 kcal/mol ; (15) 179_320_301_242_279
 C   +0.00000000   +0.00000000   +0.00000000
 O   +0.00000000   +0.00000000   +1.38112482
 C   +1.20143657   +0.00000000   +1.98936539
 C   +1.06672723   +0.02342379   +3.47943297
 C   -0.03705047   +0.93981672   +3.99559601
 C   +0.14876058   +2.35823711   +3.57402119
 C   +0.33010727   +3.37725210   +4.40288888
 C   +0.51920741   +4.79334640   +3.98733384
 O   +2.23094950   -0.04206298   +1.37944587
 H   -0.25938636   +5.43167657   +4.40303758
 H   +0.19787519   +1.26795076   -0.39080448
 H   +1.47097969   +5.18298895   +4.34589447
 H   +0.49842365   +4.89372375   +2.90546605
 H   +0.34052117   +3.18063198   +5.46984091
 H   +0.13376622   +2.54809962   +2.50521586
 H   -0.99488770   +0.56964503   +3.63185711
 H   -0.05844501   +0.87812499   +5.08202909
 H   +0.87340293   -1.00270235   +3.79467675
 H   +2.03638715   +0.30929843   +3.87436607
 H   +0.82644133   -0.54319165   -0.43967949
 H   -0.98862108   -0.24879598   -0.35750376
 H   +0.32772545   +2.16787873   -0.58938696
22
 * E =  +1.060 kcal/mol ; (16) 181_303_178_118_081
 C   +0.00000000   +0.00000000   +0.00000000
 O   +0.00000000   +0.00000000   +1.38127461
 C   +1.20081945   +0.00000000   +1.98988481
 C   +1.05665360   -0.02800620   +3.47649404
 C   +0.22169570   +1.12992522   +4.01843110
 C   +0.05429559   +1.04324885   +5.49669645
 C   +0.48578013   +1.94939165   +6.36328109
 C   +0.31954377   +1.86860704   +7.83958302
 O   +2.23153972   +0.02388511   +1.38029000
 H   +1.28474824   +1.88345675   +8.34393414
 H   +0.20973347   -1.26311078   -0.40360320
 H   -0.24628827   +2.71909485   +8.21746228
 H   -0.20090859   +0.95990847   +8.13054461
 H   +0.99894671   +2.82549166   +5.98151449
 H   -0.45799055   +0.16257932   +5.87122546
 H   +0.69437248   +2.07592502   +3.75757224
 H   -0.75219424   +1.11232708   +3.53014455
 H   +0.58440833   -0.97279720   +3.74602749
 H   +2.05542067   -0.01869422   +3.89948183
 H   -0.99028910   +0.24325094   -0.35684548
 H   +0.82186072   +0.55169791   -0.43787616
 H   +0.34850405   -2.15402738   -0.62939822
22
 * E =  +1.088 kcal/mol ; (17) 178_298_183_241_279
 C   +0.00000000   +0.00000000   +0.00000000
 O   +0.00000000   +0.00000000   +1.38108368
 C   +1.20028692   +0.00000000   +1.99082191
 C   +1.05163202   +0.04609652   +3.47631093
 C   +0.34385802   +1.31377313   +3.95231999
 C   +0.26204351   +1.37302112   +5.43935952
 C   -0.86720799   +1.41017759   +6.13356957
 C   -0.95713768   +1.47178664   +7.61745688
 O   +2.23188554   -0.03112259   +1.38283871
 H   -1.48318143   +2.36894112   +7.94101446
 H   +0.20140842   +1.26454464   -0.40128767
 H   -1.51197537   +0.62186287   +8.01249009
 H   +0.02902855   +1.47471203   +8.07428217
 H   -1.80686000   +1.40070759   +5.59174285
 H   +1.20629852   +1.38276820   +5.97427852
 H   +0.89202904   +2.18068323   +3.57995823
 H   -0.65344850   +1.35637989   +3.52038891
 H   +0.47985086   -0.82414999   +3.79442407
 H   +2.04824974   -0.02678752   +3.90002960
 H   +0.82460558   -0.54717871   -0.43842595
 H   -0.98891514   -0.24874046   -0.35679977
 H   +0.33394662   +2.15854482   -0.62088789
22
 * E =  +1.113 kcal/mol ; (18) 181_305_183_241_080
 C   +0.00000000   +0.00000000   +0.00000000
 O   +0.00000000   +0.00000000   +1.38126444
 C   +1.20053749   +0.00000000   +1.98986024
 C   +1.05566218   -0.03122272   +3.47644821
 C   +0.19165176   +1.10455656   +4.01873297
 C   +0.11960724   +1.07971734   +5.50737237
 C   -0.99695645   +0.93315463   +6.20761299
 C   -1.07786573   +0.90771131   +7.69305613
 O   +2.23137955   +0.02498921   +1.38035334
 H   -1.71452082   +1.70957645   +8.06451524
 H   +0.21625816   -1.26208308   -0.40388002
 H   -1.51086882   -0.02718492   +8.04620543
 H   -0.09579305   +1.01847406   +8.14524660
 H   -1.93308841   +0.82645137   +5.67010805
 H   +1.06026923   +1.18681964   +6.03798029
 H   +0.61477940   +2.05481663   +3.68834198
 H   -0.80724564   +1.03551774   +3.59431942
 H   +0.60782890   -0.98536992   +3.75153618
 H   +2.05699810   +0.00172384   +3.89416395
 H   -0.99156435   +0.23836819   -0.35657946
 H   +0.81876200   +0.55589028   -0.43836175
 H   +0.35983973   -2.15205344   -0.62976763
22
 * E =  +1.139 kcal/mol ; (19) 183_323_300_242_081
 C   +0.00000000   +0.00000000   +0.00000000
 O   +0.00000000   +0.00000000   +1.38139990
 C   +1.20100136   +0.00000000   +1.98943209
 C   +1.07125880   -0.06875185   +3.47874552
 C   -0.09806556   +0.71892768   +4.05680044
 C   -0.01960257   +2.17647274   +3.75186440
 C   +0.08574476   +3.13644517   +4.66056661
 C   +0.16743711   +4.59177902   +4.36205632
 O   +2.23079449   +0.02758507   +1.37896614
 H   -0.65585902   +5.13422171   +4.82503805
 H   +0.21135621   -1.26336503   -0.40332592
 H   +1.08805892   +5.02128862   +4.75473817
 H   +0.13672560   +4.77839848   +3.29183494
 H   +0.11210129   +2.85571866   +5.70817520
 H   -0.05064226   +2.45002618   +2.70194885
 H   -1.02547546   +0.30791101   +3.65977055
 H   -0.11535706   +0.57032837   +5.13489685
 H   +0.96503731   -1.12503146   +3.72953459
 H   +2.01828799   +0.26731364   +3.88916871
 H   -0.99063361   +0.24216746   -0.35668622
 H   +0.82154524   +0.55206736   -0.43798325
 H   +0.35151006   -2.15355765   -0.62911650
22
 * E =  +1.388 kcal/mol ; (20) 181_058_180_000_081
 C   +0.00000000   +0.00000000   +0.00000000
 O   +0.00000000   +0.00000000   +1.38117214
 C   +1.19997045   +0.00000000   +1.99123344
 C   +1.05409791   -0.02778755   +3.47729436
 C   +0.26216121   -1.22931561   +3.96354187
 C   +0.08617331   -1.29460690   +5.44427907
 C   +0.54619655   -0.43029532   +6.33893760
 C   +0.33639380   -0.54446638   +7.80849801
 O   +2.23149043   +0.02943918   +1.38330136
 H   +1.28676087   -0.60350364   +8.33725818
 H   +0.19862725   -1.26512674   -0.40109835
 H   -0.18808050   +0.32641380   +8.19940495
 H   -0.24448388   -1.42866019   +8.05777432
 H   +1.11922541   +0.42702711   +6.00643707
 H   -0.48106204   -2.14768921   +5.79968158
 H   -0.71753489   -1.22719632   +3.48604313
 H   +0.75168430   -2.14510291   +3.62668003
 H   +2.05541581   -0.01796654   +3.89564862
 H   +0.54840421   +0.88884587   +3.78141669
 H   -0.98852643   +0.25049369   -0.35660529
 H   +0.82564722   +0.54551106   -0.43851753
 H   +0.32852729   -2.15942937   -0.62046381
22
 * E =  +1.422 kcal/mol ; (21) 182_308_180_000_080
 C   +0.00000000   +0.00000000   +0.00000000
 O   +0.00000000   +0.00000000   +1.38136719
 C   +1.20045465   +0.00000000   +1.98974472
 C   +1.06169260   -0.04548787   +3.47631569
 C   +0.13604282   +1.02512312   +4.02503408
 C   -0.02197100   +1.00323961   +5.50919087
 C   +0.55345540   +0.16182343   +6.35775057
 C   +0.35496615   +0.18330501   +7.83310447
 O   +2.23089873   +0.02581819   +1.37975004
 H   -0.05482430   -0.76135105   +8.18804611
 H   +0.22110496   -1.26165810   -0.40378906
 H   +1.29973463   +0.33239950   +8.35410079
 H   -0.32381264   +0.97872384   +8.12965326
 H   +1.21997208   -0.60411163   +5.97966257
 H   -0.68236847   +1.76417871   +5.91003266
 H   +0.50279824   +2.00899062   +3.72556453
 H   -0.84368740   +0.92330371   +3.55886735
 H   +0.67576558   -1.03115981   +3.73877114
 H   +2.06143287   +0.04214986   +3.88958432
 H   -0.99249175   +0.23474013   -0.35634481
 H   +0.81671649   +0.55884174   -0.43834608
 H   +0.36791052   -2.15079415   -0.62957721
22
 * E =  +6.884 kcal/mol ; (22) 001_185_178_119_072
 C   +0.00000000   +0.00000000   +0.00000000
 O   +0.00000000   +0.00000000   +1.37452867
 C   +1.14879740   +0.00000000   +2.08769904
 C   +2.44074190   +0.02415200   +1.32469150
 C   +3.64028531   -0.09982955   +2.24618944
 C   +4.92239853   -0.12183214   +1.48657599
 C   +5.89409873   +0.77156648   +1.61521223
 C   +7.18003460   +0.75139795   +0.86692861
 O   +1.07363812   -0.01148642   +3.27841640
 H   +7.31429916   +1.66630364   +0.29139270
 H   +0.39766914   -1.19240527   -0.44371010
 H   +8.02761002   +0.68076604   +1.54731867
 H   +7.22626619   -0.09057824   +0.18112445
 H   +5.75906673   +1.58184595   +2.32360569
 H   +5.05428032   -0.93718686   +0.78184535
 H   +3.63487628   +0.72101236   +2.95926392
 H   +3.53084685   -1.01201950   +2.83235309
 H   +2.43288831   -0.77501278   +0.58322780
 H   +2.49717720   +0.95651298   +0.76045667
 H   -1.02007656   +0.07714009   -0.34946559
 H   +0.68173824   +0.70537202   -0.46412500
 H   +0.68609169   -2.04846553   -0.71567162
22
 * E =  +6.926 kcal/mol ; (23) 358_180_070_117_290
 C   +0.00000000   +0.00000000   +0.00000000
 O   +0.00000000   +0.00000000   +1.37458691
 C   +1.14476789   +0.00000000   +2.09299594
 C   +2.44073066   -0.03976659   +1.33613394
 C   +3.64805101   -0.04506072   +2.26026457
 C   +3.80013660   -1.32168854   +3.01739980
 C   +4.83515288   -2.14253819   +2.89558195
 C   +5.00704062   -3.41563859   +3.64704281
 O   +1.06095402   +0.03893946   +3.28308232
 H   +5.10055812   -4.26359870   +2.96964905
 H   +0.42878192   +1.18267119   -0.44482317
 H   +5.91302585   -3.39468102   +4.25147628
 H   +4.16424012   -3.60031675   +4.30770915
 H   +5.63115519   -1.87723711   +2.20722373
 H   +3.00170511   -1.56518745   +3.70772542
 H   +4.54037053   +0.13234782   +1.66259756
 H   +3.54998311   +0.78642301   +2.95745534
 H   +2.45496762   -0.92467344   +0.69921677
 H   +2.46637897   +0.82047185   +0.66653752
 H   +0.66186346   -0.72319943   -0.46512886
 H   -1.02201444   -0.05009019   -0.34870901
 H   +0.73561214   +2.03046280   -0.71873329
22
 * E =  +6.939 kcal/mol ; (24) 359_174_177_119_288
 C   +0.00000000   +0.00000000   +0.00000000
 O   +0.00000000   +0.00000000   +1.37466783
 C   +1.14867570   +0.00000000   +2.08760316
 C   +2.44057961   -0.01644598   +1.32381886
 C   +3.63908081   +0.13724063   +2.24235029
 C   +4.92566542   +0.03824632   +1.49671997
 C   +5.83242783   +1.00271757   +1.41779112
 C   +7.12252361   +0.90698343   +0.68272299
 O   +1.07351548   +0.00616513   +3.27840951
 H   +7.19661751   +1.67839599   -0.08260486
 H   +0.38817168   +1.19576916   -0.44352759
 H   +7.96760312   +1.04872293   +1.35505466
 H   +7.23310211   -0.06085954   +0.20054672
 H   +5.63578851   +1.93835439   +1.93007966
 H   +5.11956825   -0.90137255   +0.98814494
 H   +3.57599074   +1.09135068   +2.76103808
 H   +3.58364833   -0.63155880   +3.01204527
 H   +2.50211870   -0.95863033   +0.77481394
 H   +2.42809676   +0.76961859   +0.56976440
 H   +0.68726690   -0.70003908   -0.46401385
 H   -1.01944533   -0.08561411   -0.34933491
 H   +0.66904296   +2.05400426   -0.71504034
22
 * E =  +7.239 kcal/mol ; (25) 000_175_179_001_288
 C   +0.00000000   +0.00000000   +0.00000000
 O   +0.00000000   +0.00000000   +1.37450608
 C   +1.14758463   +0.00000000   +2.08901614
 C   +2.43850708   -0.01161430   +1.32451457
 C   +3.62831189   +0.10739455   +2.24704909
 C   +4.95261709   +0.08721269   +1.56088569
 C   +5.17790426   -0.00735761   +0.25677806
 C   +6.52948116   -0.02149115   -0.36793037
 O   +1.07011733   +0.00332283   +3.27966599
 H   +6.69229077   -0.93781235   -0.93385344
 H   +0.39772934   +1.19204505   -0.44595328
 H   +6.64865500   +0.80585580   -1.06624688
 H   +7.31193969   +0.05497025   +0.38253511
 H   +4.33993360   -0.07860367   -0.42677149
 H   +5.80891997   +0.16008458   +2.22195401
 H   +3.53552964   +1.02387490   +2.83009655
 H   +3.58706947   -0.69352835   +2.98470751
 H   +2.49297514   -0.93922312   +0.75117588
 H   +2.42640643   +0.79581425   +0.59241028
 H   +0.68112647   -0.70653626   -0.46340588
 H   -1.02012363   -0.07737786   -0.34928106
 H   +0.68435585   +2.04684321   -0.72250889
22
 * E =  +7.343 kcal/mol ; (26) 359_194_075_252_073
 C   +0.00000000   +0.00000000   +0.00000000
 O   +0.00000000   +0.00000000   +1.37423335
 C   +1.14886623   +0.00000000   +2.08766377
 C   +2.44379857   -0.01720386   +1.32396420
 C   +3.61912114   -0.36078194   +2.22613172
 C   +3.65061658   -1.81128966   +2.57768406
 C   +3.35816767   -2.30051717   +3.77476051
 C   +3.36437273   -3.74437945   +4.13116610
 O   +1.07146252   +0.04492315   +3.27721129
 H   +4.06045617   -3.94434686   +4.94475037
 H   +0.37292927   -1.19773448   -0.44958593
 H   +2.38092593   -4.06364072   +4.47335526
 H   +3.64699439   -4.36289606   +3.28304740
 H   +3.07713164   -1.60486915   +4.55690153
 H   +3.91202731   -2.49695867   +1.77763502
 H   +4.53782275   -0.08520755   +1.70932946
 H   +3.55668022   +0.24038167   +3.12970812
 H   +2.37770669   -0.71760540   +0.49334650
 H   +2.57136183   +0.97398669   +0.88300498
 H   -1.01852721   +0.09769888   -0.34912618
 H   +0.69434297   +0.69458208   -0.46236657
 H   +0.64558486   -2.05597490   -0.73108018
22
 * E =  +7.682 kcal/mol ; (27) 006_190_076_253_293
 C   +0.00000000   +0.00000000   +0.00000000
 O   +0.00000000   +0.00000000   +1.37412563
 C   +1.14101095   +0.00000000   +2.10144641
 C   +2.44206809   +0.14118871   +1.36230929
 C   +3.63373279   -0.12399174   +2.26862796
 C   +3.82211491   -1.57998322   +2.54014360
 C   +3.55724869   -2.17079350   +3.69721396
 C   +3.72447513   -3.62284062   +3.97205727
 O   +1.04688914   -0.06448917   +3.28874213
 H   +4.41834490   -3.78824225   +4.79521393
 H   +0.49921429   +1.15168419   -0.46596844
 H   +2.77748884   -4.07455674   +4.26432838
 H   +4.10032588   -4.15290332   +3.10045614
 H   +3.17592824   -1.56008687   +4.50721916
 H   +4.18530094   -2.18244850   +1.71290918
 H   +4.52412539   +0.27984978   +1.78805486
 H   +3.49207311   +0.41389242   +3.20258536
 H   +2.46297132   -0.52618143   +0.50234240
 H   +2.46917002   +1.15343695   +0.95617536
 H   +0.60985066   -0.76945378   -0.46297246
 H   -1.02400942   +0.01355815   -0.34666121
 H   +0.83829115   +1.97078489   -0.77659562
22
 * E =  +8.532 kcal/mol ; (28) 000_175_285_004_068
 C   +0.00000000   +0.00000000   +0.00000000
 O   +0.00000000   +0.00000000   +1.37411431
 C   +1.14446146   +0.00000000   +2.09792776
 C   +2.44242795   -0.00173071   +1.34083235
 C   +3.64507794   +0.11756221   +2.25050887
 C   +3.89815471   +1.47897532   +2.81062589
 C   +3.14365006   +2.55813500   +2.66223742
 C   +3.44374191   +3.88849245   +3.25887526
 O   +1.05619035   -0.02586329   +3.28631442
 H   +3.52259769   +4.65807430   +2.49208602
 H   +0.46469466   -1.16767504   -0.45123802
 H   +2.65039240   +4.19796223   +3.93786273
 H   +4.37673849   +3.86959481   +3.81609596
 H   +2.22526117   +2.49727787   +2.08978397
 H   +4.79891651   +1.56390319   +3.40788179
 H   +3.53387451   -0.58622426   +3.07553600
 H   +4.52866192   -0.20006787   +1.69622749
 H   +2.48342696   -0.93129280   +0.77264689
 H   +2.44508738   +0.79990943   +0.60284125
 H   -1.02341882   +0.01730170   -0.34809526
 H   +0.63621171   +0.74522777   -0.46660303
 H   +0.78937173   -2.00427200   -0.73685187
22
 * E =  +8.623 kcal/mol ; (29) 002_092_176_120_071
 C   +0.00000000   +0.00000000   +0.00000000
 O   +0.00000000   +0.00000000   +1.37465517
 C   +1.14450490   +0.00000000   +2.09386578
 C   +2.45387949   +0.04603470   +1.36159937
 C   +2.91770152   +1.49377770   +1.17603785
 C   +4.26387660   +1.56336151   +0.54154826
 C   +4.52852844   +2.16555182   -0.60987975
 C   +5.87135818   +2.24384439   -1.24533732
 O   +1.06012387   +0.00784223   +3.28469145
 H   +5.86205128   +1.79640193   -2.23821230
 H   +0.40407727   -1.19112023   -0.44041137
 H   +6.18549435   +3.27924239   -1.36923481
 H   +6.62197004   +1.73154431   -0.64948275
 H   +3.71499211   +2.65090451   -1.13875948
 H   +5.07186134   +1.07740617   +1.07852453
 H   +2.20081118   +2.05288255   +0.57455778
 H   +2.93979187   +1.96644698   +2.15812478
 H   +3.16666547   -0.48058359   +1.98898780
 H   +2.41052779   -0.46432541   +0.40402395
 H   -1.02057951   +0.07401883   -0.34887688
 H   +0.67885278   +0.70869011   -0.46358311
 H   +0.70439370   -2.04453503   -0.70438251
22
 * E =  +8.741 kcal/mol ; (30) 003_090_180_242_070
 C   +0.00000000   +0.00000000   +0.00000000
 O   +0.00000000   +0.00000000   +1.37437514
 C   +1.14442309   +0.00000000   +2.09529200
 C   +2.45377924   +0.07008907   +1.36530358
 C   +2.88358725   +1.52633468   +1.16427145
 C   +4.18704774   +1.62418048   +0.44832788
 C   +5.28781382   +2.15885385   +0.95888843
 C   +6.59491058   +2.25993362   +0.25620001
 O   +1.05723198   -0.01063505   +3.28573151
 H   +6.91039396   +3.29830778   +0.16501335
 H   +0.42053860   -1.18453493   -0.44182702
 H   +7.37664451   +1.74091220   +0.80891838
 H   +6.54359966   +1.83229740   -0.74160726
 H   +5.24712269   +2.56015710   +1.96565305
 H   +4.21887286   +1.21731323   -0.55736648
 H   +2.11463526   +2.06240788   +0.60384217
 H   +2.95332398   +2.00938803   +2.13671227
 H   +3.18231171   -0.43128028   +1.99369079
 H   +2.41645968   -0.45322624   +0.41333685
 H   -1.02149568   +0.05978384   -0.34902472
 H   +0.66787751   +0.71870690   -0.46422078
 H   +0.73357390   -2.03298666   -0.70900511
22
 * E =  +9.221 kcal/mol ; (31) 005_087_065_123_070
 C   +0.00000000   +0.00000000   +0.00000000
 O   +0.00000000   +0.00000000   +1.37446199
 C   +1.14232512   +0.00000000   +2.10010763
 C   +2.44973636   +0.12067274   +1.37363214
 C   +2.82846516   +1.59027025   +1.14321451
 C   +3.08429161   +2.33557414   +2.40965174
 C   +4.21703581   +2.96804320   +2.68361008
 C   +4.49183541   +3.71872049   +3.93826880
 O   +1.04765529   -0.04999089   +3.28933490
 H   +5.35968230   +3.31150153   +4.45513856
 H   +0.44017846   -1.17805768   -0.43932888
 H   +4.71142039   +4.76493857   +3.72931696
 H   +3.64400495   +3.67803631   +4.61649497
 H   +5.01474888   +2.94725890   +1.94830259
 H   +2.28559154   +2.34105722   +3.14211207
 H   +3.71791451   +1.61911414   +0.51663211
 H   +2.03524883   +2.08668436   +0.58003290
 H   +3.19548267   -0.34600314   +2.00867462
 H   +2.42499189   -0.41443854   +0.42841181
 H   -1.02247593   +0.04297501   -0.34866070
 H   +0.65667736   +0.72710057   -0.46636929
 H   +0.76912732   -2.02186405   -0.70261076
22
 * E =  +9.289 kcal/mol ; (32) 006_279_185_239_088
 C   +0.00000000   +0.00000000   +0.00000000
 O   +0.00000000   +0.00000000   +1.37272125
 C   +1.12059877   +0.00000000   +2.12935269
 C   +2.45522406   +0.13131018   +1.45567473
 C   +2.94969497   -1.19455720   +0.87352736
 C   +4.32564785   -1.06381182   +0.31589993
 C   +4.65590260   -1.30662812   -0.94537343
 C   +6.02800457   -1.18641285   -1.50766143
 O   +0.99234747   -0.11035660   +3.31139930
 H   +6.37201329   -2.14004815   -1.90559333
 H   +0.04073474   -1.25289112   -0.43553040
 H   +6.05382968   -0.47408198   -2.33110381
 H   +6.73817594   -0.85877070   -0.75313216
 H   +3.87871770   -1.62795961   -1.63060689
 H   +5.09730756   -0.74586731   +1.00941744
 H   +2.94086395   -1.93774680   +1.67156274
 H   +2.27491210   -1.55573371   +0.10015335
 H   +2.44091489   +0.89652982   +0.68261901
 H   +3.13741977   +0.46415841   +2.23142730
 H   -0.95987716   +0.35094282   -0.35414043
 H   +0.84780066   +0.48225088   -0.47336420
 H   +0.06614409   -2.15346432   -0.72648480
22
 * E =  +9.322 kcal/mol ; (33) 353_275_302_124_291
 C   +0.00000000   +0.00000000   +0.00000000
 O   +0.00000000   +0.00000000   +1.37391724
 C   +1.14582214   +0.00000000   +2.09488646
 C   +2.44911358   -0.15728637   +1.36653549
 C   +2.79311230   -1.63131291   +1.11785829
 C   +2.86743700   -2.43102534   +2.37337865
 C   +2.15247743   -3.52108854   +2.61259526
 C   +2.21083601   -4.32226486   +3.86406515
 O   +1.06160110   +0.08857667   +3.28154004
 H   +1.23695627   -4.35260132   +4.35024435
 H   +0.44802047   +1.17424649   -0.43789616
 H   +2.49558429   -5.35321683   +3.65833240
 H   +2.92598681   -3.90473256   +4.56741268
 H   +1.46139659   -3.86510543   +1.85021738
 H   +3.54823129   -2.06915154   +3.13578079
 H   +2.07197297   -2.08919549   +0.44161977
 H   +3.75518113   -1.65030490   +0.60465557
 H   +2.45141935   +0.39432067   +0.43003394
 H   +3.20171576   +0.28166477   +2.01413787
 H   +0.65233263   -0.72996677   -0.46749217
 H   -1.02243545   -0.03655295   -0.34965714
 H   +0.78514392   +2.01674149   -0.69984001
22
 * E =  +9.452 kcal/mol ; (34) 002_285_305_122_090
 C   +0.00000000   +0.00000000   +0.00000000
 O   +0.00000000   +0.00000000   +1.37142134
 C   +1.11983287   +0.00000000   +2.13075016
 C   +2.46153625   +0.04859209   +1.45656559
 C   +2.87192273   -1.28325933   +0.82181061
 C   +2.83715494   -2.41344601   +1.79396979
 C   +2.10815692   -3.51044258   +1.64160905
 C   +2.05527543   -4.63899656   +2.60856253
 O   +0.98434122   -0.03351112   +3.31594442
 H   +1.03954540   -4.79299972   +2.96953238
 H   -0.00331510   -1.25111604   -0.44088590
 H   +2.37006914   -5.57094981   +2.14095413
 H   +2.69507661   -4.45511797   +3.46735709
 H   +1.49493107   -3.60493100   +0.75184136
 H   +3.44052503   -2.30074854   +2.68814987
 H   +2.24118468   -1.51982909   -0.03226929
 H   +3.88315938   -1.15256707   +0.43487196
 H   +2.49663410   +0.84669780   +0.71688314
 H   +3.16032580   +0.30694723   +2.24573081
 H   -0.94787608   +0.38193037   -0.35505052
 H   +0.86255286   +0.45639183   -0.47282701
 H   -0.01629707   -2.14673485   -0.74708524
22
 * E =  +9.532 kcal/mol ; (35) 005_280_182_117_089
 C   +0.00000000   +0.00000000   +0.00000000
 O   +0.00000000   +0.00000000   +1.37254922
 C   +1.11907511   +0.00000000   +2.13220731
 C   +2.45761109   +0.11780736   +1.46358838
 C   +2.94143888   -1.21229923   +0.88202201
 C   +4.28837347   -1.07763221   +0.25752735
 C   +5.37777523   -1.71131843   +0.66938572
 C   +6.72566840   -1.58447498   +0.05312311
 O   +0.98578643   -0.09907742   +3.31462289
 H   +7.45518582   -1.22736594   +0.77858634
 H   +0.02842306   -1.25341687   -0.43527467
 H   +7.08396359   -2.54848395   -0.30516762
 H   +6.71526627   -0.89381796   -0.78597294
 H   +5.29488507   -2.38085646   +1.51857532
 H   +4.36285159   -0.40464323   -0.59091527
 H   +2.97483934   -1.95414257   +1.67772199
 H   +2.22885508   -1.57722924   +0.14237442
 H   +2.44721656   +0.88615331   +0.69218269
 H   +3.14453087   +0.44257948   +2.23744573
 H   -0.95643630   +0.36000902   -0.35445719
 H   +0.85162036   +0.47508735   -0.47367360
 H   +0.04477407   -2.15481475   -0.72374831
22
 * E =  +9.706 kcal/mol ; (36) 019_093_067_123_292
 C   +0.00000000   +0.00000000   +0.00000000
 O   +0.00000000   +0.00000000   +1.37393665
 C   +1.14074209   +0.00000000   +2.10521858
 C   +2.41689061   +0.42550350   +1.44231144
 C   +2.65536006   +1.92923123   +1.65035263
 C   +2.91528952   +2.29826194   +3.07144482
 C   +4.00684865   +2.92696103   +3.48611643
 C   +4.28423661   +3.31238597   +4.89620488
 O   +1.05707051   -0.26451494   +3.26638248
 H   +5.20821393   +2.85835101   +5.25183777
 H   +0.46012980   +1.15317382   -0.49678494
 H   +4.40579297   +4.39066837   +4.99171931
 H   +3.47860977   +3.00170279   +5.55577011
 H   +4.76449091   +3.19060576   +2.75534086
 H   +2.15672807   +2.02169122   +3.79373200
 H   +3.50369973   +2.22324745   +1.03517625
 H   +1.79199602   +2.47752763   +1.27050272
 H   +3.21875637   -0.13592023   +1.91155397
 H   +2.41717722   +0.20625576   +0.37931966
 H   +0.63566921   -0.75407601   -0.45483642
 H   -1.02397595   -0.02624005   -0.34653644
 H   +0.77936712   +1.95425097   -0.87160175
22
 * E =  +9.919 kcal/mol ; (37) 004_282_300_239_089
 C   +0.00000000   +0.00000000   +0.00000000
 O   +0.00000000   +0.00000000   +1.37263670
 C   +1.11746698   +0.00000000   +2.13559356
 C   +2.45842010   +0.09409155   +1.46708769
 C   +2.92202576   -1.23547044   +0.86253802
 C   +3.05619704   -2.31962516   +1.87801359
 C   +4.18212009   -2.97327003   +2.12861433
 C   +4.33283542   -4.05775813   +3.13562962
 O   +0.97758709   -0.08075558   +3.31870111
 H   +4.65572223   -4.98630283   +2.66666054
 H   +0.02084557   -1.25352626   -0.43305516
 H   +5.08729885   -3.79973779   +3.87745527
 H   +3.39775707   -4.24667847   +3.65566654
 H   +5.07079920   -2.71041280   +1.56426560
 H   +2.16613857   -2.57182344   +2.44370344
 H   +2.22869069   -1.54715710   +0.08121102
 H   +3.88228030   -1.06892468   +0.37780252
 H   +2.45475551   +0.87077400   +0.70482781
 H   +3.14856032   +0.39679517   +2.24722821
 H   -0.95455719   +0.36535910   -0.35420324
 H   +0.85428986   +0.47027910   -0.47373451
 H   +0.03055239   -2.15688328   -0.71735099
22
 * E = +10.002 kcal/mol ; (38) 011_078_072_001_068
 C   +0.00000000   +0.00000000   +0.00000000
 O   +0.00000000   +0.00000000   +1.37437603
 C   +1.14097986   +0.00000000   +2.10268296
 C   +2.43500206   +0.26288863   +1.38550442
 C   +2.67575683   +1.73733401   +1.06639288
 C   +3.00685005   +2.62265024   +2.22416190
 C   +3.12784854   +2.27138902   +3.49703312
 C   +3.47460423   +3.21618253   +4.59344300
 O   +1.05010761   -0.19428863   +3.27697866
 H   +2.68682343   +3.24269276   +5.34478030
 H   +0.47725716   -1.16492684   -0.43112794
 H   +4.38483351   +2.90466955   +5.10402822
 H   +3.62371702   +4.22600782   +4.21952454
 H   +2.94775396   +1.24595654   +3.79124805
 H   +3.16807103   +3.66192865   +1.95903165
 H   +3.49383900   +1.78869654   +0.34635203
 H   +1.81302449   +2.15870213   +0.54721980
 H   +3.22524654   -0.11011891   +2.02938894
 H   +2.46480945   -0.31630163   +0.46562093
 H   -1.02330058   +0.01167740   -0.34868012
 H   +0.63556597   +0.74159770   -0.47137075
 H   +0.83762577   -2.00065339   -0.68378769
22
 * E = +10.211 kcal/mol ; (39) 000_070_065_005_269
 C   +0.00000000   +0.00000000   +0.00000000
 O   +0.00000000   +0.00000000   +1.37238844
 C   +1.11332913   +0.00000000   +2.13778835
 C   +2.46148378   -0.01012734   +1.47017602
 C   +2.86223908   +1.27517259   +0.75583177
 C   +3.05002346   +2.47693713   +1.62362089
 C   +2.99144100   +2.52535665   +2.94788070
 C   +3.20176051   +3.76259966   +3.74798446
 O   +0.96483053   -0.03026904   +3.32276899
 H   +2.32068652   +3.99204973   +4.34536443
 H   -0.02753634   +1.25252549   -0.43947050
 H   +4.03027505   +3.64110335   +4.44444806
 H   +3.41499832   +4.61818159   +3.11220146
 H   +2.76219561   +1.62946720   +3.51017613
 H   +3.26591923   +3.39205553   +1.08336134
 H   +3.79757319   +1.07469733   +0.23001416
 H   +2.14570679   +1.52036881   -0.02646795
 H   +3.17067977   -0.23231497   +2.26133442
 H   +2.50146700   -0.84070708   +0.76634985
 H   +0.87092357   -0.44226204   -0.47107534
 H   -0.94090115   -0.40042770   -0.35317409
 H   -0.05108046   +2.15059199   -0.73473116
