22
 * E =  +0.000 kcal/mol ; (1) 178_164_180_218
 C   +0.00000000   +0.00000000   +0.00000000
 O   +0.00000000   +0.00000000   +1.41712376
 C   +1.20234417   +0.00000000   +1.98608091
 C   +1.10532174   +0.04354649   +3.48029912
 C   +2.40029902   -0.32706746   +4.15035336
 C   +2.39210907   -0.29980678   +5.61409218
 C   +3.40756150   +0.12242904   +6.36597950
 C   +3.42625859   +0.11924267   +7.85215418
 O   +2.22551709   -0.00831910   +1.35813500
 H   +4.24204496   -0.49575582   +8.23072973
 H   +0.50589470   +0.88261182   -0.37871983
 H   +3.58206325   +1.12293114   +8.24568603
 H   +2.49532186   -0.26536836   +8.26028735
 H   +4.29500205   +0.49799929   +5.86913749
 H   +1.50229402   -0.67820949   +6.10672078
 H   +2.59076223   -1.50626985   +3.79332249
 H   +3.25338810   +0.17792614   +3.70765212
 H   +0.80971854   +1.05966269   +3.75020052
 H   +0.28737392   -0.60021922   +3.79809053
 H   +0.50496941   -0.88354423   -0.37731308
 H   -1.04089792   +0.00039309   -0.29593548
 H   +2.67081598   -2.46743063   +3.42049854
22
 * E =  +0.019 kcal/mol ; (2) 178_165_174_010
 C   +0.00000000   +0.00000000   +0.00000000
 O   +0.00000000   +0.00000000   +1.41716229
 C   +1.20183452   +0.00000000   +1.98669876
 C   +1.10049853   +0.04063594   +3.48082460
 C   +2.39833182   -0.31254321   +4.14740533
 C   +2.46729352   -0.18770439   +5.60612267
 C   +1.43982325   +0.03179179   +6.42619140
 C   +1.54871197   +0.13016529   +7.90611263
 O   +2.22495298   -0.00861461   +1.35852555
 H   +1.19874235   +1.09783213   +8.26354490
 H   +0.50623760   +0.88235916   -0.37878506
 H   +0.93481376   -0.62564858   +8.39486194
 H   +2.57527984   -0.00235191   +8.23730710
 H   +0.44700747   +0.15658071   +6.01056194
 H   +3.45235581   -0.31125892   +6.04034409
 H   +2.57404318   -1.51083945   +3.87238243
 H   +3.24885678   +0.12767489   +3.63525050
 H   +0.79031283   +1.05211162   +3.75289933
 H   +0.28973543   -0.61567002   +3.79047596
 H   +0.50435498   -0.88386223   -0.37737731
 H   -1.04092485   +0.00087343   -0.29581054
 H   +2.61017524   -2.50609349   +3.56573676
22
 * E =  +0.153 kcal/mol ; (3) 183_206_079_221
 C   +0.00000000   +0.00000000   +0.00000000
 O   +0.00000000   +0.00000000   +1.41737861
 C   +1.20265074   +0.00000000   +1.98581062
 C   +1.11095166   -0.06429787   +3.48242804
 C   +2.31818517   +0.54148982   +4.14880520
 C   +2.35006996   +2.00283212   +4.22309993
 C   +3.43799876   +2.74408542   +4.01817835
 C   +3.49042973   +4.22556295   +4.11909297
 O   +2.22470499   +0.01691363   +1.35612436
 H   +4.21235542   +4.54032238   +4.87197395
 H   +0.50835951   +0.88157863   -0.37726029
 H   +3.80652102   +4.67059646   +3.17648660
 H   +2.52176988   +4.64102751   +4.38403736
 H   +4.35926113   +2.24106031   +3.74827699
 H   +1.42060506   +2.49831004   +4.48481625
 H   +2.26929865   +0.09756046   +5.31449887
 H   +3.24491937   +0.11707815   +3.77364027
 H   +0.18872098   +0.41329406   +3.80353484
 H   +1.02121366   -1.12007672   +3.74257279
 H   +0.50304179   -0.88439577   -0.37831055
 H   -1.04088053   +0.00293290   -0.29596541
 H   +2.19621018   -0.37880818   +6.22489939
22
 * E =  +0.177 kcal/mol ; (4) 180_054_066_009
 C   +0.00000000   +0.00000000   +0.00000000
 O   +0.00000000   +0.00000000   +1.41664231
 C   +1.20159989   +0.00000000   +1.98689204
 C   +1.10632067   -0.00355013   +3.48416864
 C   +0.25158846   -1.12735562   +4.01483737
 C   +0.72374583   -2.50182101   +3.81362504
 C   +1.92132719   -2.85984121   +3.34922863
 C   +2.36723579   -4.26790465   +3.17938784
 O   +2.22465112   +0.01296131   +1.35751432
 H   +2.62680880   -4.47300371   +2.14167806
 H   +0.50056791   +0.88568645   -0.37851393
 H   +3.26084965   -4.46671507   +3.76997357
 H   +1.59591337   -4.97034007   +3.48407049
 H   +2.63035163   -2.09613749   +3.05362652
 H   +0.02465708   -3.28229600   +4.09044744
 H   +0.20743492   -0.92214938   +5.24052281
 H   -0.79490722   -1.00419137   +3.74961261
 H   +2.11845670   -0.05256900   +3.87291266
 H   +0.67714108   +0.94872438   +3.79225301
 H   +0.51053635   -0.88072070   -0.37651369
 H   -1.04073644   -0.00616280   -0.29654877
 H   +0.19404565   -0.63319115   +6.23955243
22
 * E =  +0.353 kcal/mol ; (5) 180_055_068_219
 C   +0.00000000   +0.00000000   +0.00000000
 O   +0.00000000   +0.00000000   +1.41651919
 C   +1.20304876   +0.00000000   +1.98668605
 C   +1.10627126   -0.00214610   +3.48376422
 C   +0.26398788   -1.14307767   +4.00657324
 C   +0.82107108   -2.48619610   +3.83041914
 C   +0.10328882   -3.56261404   +3.51174517
 C   +0.64995917   -4.93606361   +3.36025520
 O   +2.22485065   +0.00821136   +1.35661653
 H   +0.17837018   -5.62306041   +4.06217483
 H   +0.50053960   +0.88567322   -0.37868074
 H   +0.45762272   -5.32690714   +2.36193858
 H   +1.72249866   -4.95777712   +3.53290431
 H   -0.96142474   -3.44136763   +3.34634038
 H   +1.88797524   -2.59655506   +3.99253541
 H   +0.18662534   -0.91288601   +5.22485866
 H   -0.77274025   -1.07040768   +3.69039895
 H   +2.11958006   -0.05211006   +3.86997299
 H   +0.67169603   +0.94727672   +3.79392590
 H   +0.51064544   -0.88043722   -0.37705613
 H   -1.04072921   -0.00575775   -0.29678367
 H   +0.10512834   -0.60828764   +6.21582837
22
 * E =  +0.402 kcal/mol ; (6) 179_178_299_220
 C   +0.00000000   +0.00000000   +0.00000000
 O   +0.00000000   +0.00000000   +1.41697111
 C   +1.20292207   +0.00000000   +1.98644829
 C   +1.09236019   +0.02344002   +3.48143969
 C   +2.41693979   -0.03384502   +4.19587573
 C   +3.26040676   -1.21018181   +3.97824114
 C   +3.95619985   -1.81146764   +4.94359126
 C   +4.85338825   -2.97953136   +4.74259542
 O   +2.22455521   -0.00827900   +1.35626095
 H   +5.87575613   -2.74145440   +5.03486025
 H   +0.50997497   +0.88034753   -0.37825273
 H   +4.54207150   -3.82615312   +5.35347822
 H   +4.86438898   -3.29528614   +3.70292872
 H   +3.87680841   -1.42921742   +5.95562017
 H   +3.34217475   -1.57083011   +2.96102962
 H   +3.03194516   +0.97521639   +3.76951029
 H   +2.30647462   +0.20558024   +5.25035263
 H   +0.55446841   +0.93335775   +3.74557818
 H   +0.44513319   -0.80162874   +3.78070175
 H   +0.50066934   -0.88562801   -0.37852420
 H   -1.04087348   +0.00513712   -0.29599813
 H   +3.41568442   +1.86583805   +3.45746260
22
 * E =  +0.426 kcal/mol ; (7) 181_226_070_008
 C   +0.00000000   +0.00000000   +0.00000000
 O   +0.00000000   +0.00000000   +1.41757027
 C   +1.20390829   +0.00000000   +1.98481188
 C   +1.12570942   -0.03027155   +3.48331640
 C   +2.06208154   +0.97461626   +4.10067525
 C   +1.73297501   +2.39597469   +3.95571793
 C   +0.59868227   +2.89439773   +3.46349225
 C   +0.30110912   +4.34669615   +3.34682029
 O   +2.22506998   +0.00629990   +1.35351011
 H   +0.11809107   +4.62787041   +2.31045292
 H   +0.50735055   +0.88251024   -0.37663278
 H   -0.59688058   +4.60767784   +3.90579790
 H   +1.12184854   +4.95183431   +3.72248638
 H   -0.16946562   +2.21951530   +3.10466605
 H   +2.49249194   +3.08931820   +4.29705002
 H   +2.04145102   +0.70662030   +5.32145175
 H   +3.09960624   +0.76081961   +3.85954653
 H   +0.09925188   +0.12393866   +3.80160047
 H   +1.41601622   -1.03288566   +3.79468758
 H   +0.50492616   -0.88341928   -0.37779327
 H   -1.04080885   +0.00082345   -0.29627143
 H   +1.98755404   +0.37103282   +6.29302524
22
 * E =  +0.684 kcal/mol ; (8) 181_328_189_219
 C   +0.00000000   +0.00000000   +0.00000000
 O   +0.00000000   +0.00000000   +1.41703236
 C   +1.20224861   +0.00000000   +1.98608121
 C   +1.12525989   -0.02259639   +3.48345805
 C   -0.06371441   +0.69403502   +4.07290161
 C   -0.04803225   +0.85132589   +5.52858872
 C   -1.12027615   +0.73847373   +6.31130851
 C   -1.12323402   +0.93129713   +7.78494831
 O   +2.22401408   -0.01509077   +1.35577699
 H   -1.79618691   +1.73884716   +8.07130534
 H   +0.51248458   +0.87962179   -0.37599934
 H   -1.47225838   +0.03592265   +8.29774145
 H   -0.13035486   +1.17065899   +8.15618821
 H   -2.07000018   +0.48822261   +5.85190876
 H   +0.90493362   +1.10228539   +5.98254078
 H   -0.01488458   +1.83045331   +3.56692442
 H   -1.00918380   +0.32169435   +3.69075208
 H   +1.10711625   -1.07339669   +3.78071281
 H   +2.06131987   +0.38697643   +3.85289705
 H   +0.49914691   -0.88669045   -0.37794472
 H   -1.04078060   +0.00872321   -0.29625293
 H   +0.07528414   +2.72443067   +3.04567618
22
 * E =  +0.950 kcal/mol ; (9) 181_331_183_009
 C   +0.00000000   +0.00000000   +0.00000000
 O   +0.00000000   +0.00000000   +1.41713136
 C   +1.20199910   +0.00000000   +1.98607685
 C   +1.13558491   -0.02495822   +3.48412554
 C   -0.08291040   +0.62525931   +4.07969672
 C   -0.16895162   +0.68769946   +5.54212760
 C   +0.79642978   +0.37147343   +6.40490789
 C   +0.66800707   +0.46799402   +7.88324452
 O   +2.22301210   -0.01279766   +1.35430234
 H   +0.82469810   -0.50084148   +8.35580301
 H   +0.51180273   +0.88000193   -0.37599843
 H   +1.41604483   +1.14334231   +8.29705296
 H   -0.31397878   +0.83220937   +8.17323961
 H   +1.74645294   +0.00970433   +6.03110823
 H   -1.11216041   +1.04508830   +5.93844342
 H   -0.05489405   +1.79590505   +3.66056722
 H   -1.00277167   +0.27880494   +3.61850623
 H   +1.18057036   -1.07505610   +3.78249588
 H   +2.05302818   +0.43633794   +3.83812787
 H   +0.50025663   -0.88616523   -0.37761750
 H   -1.04081425   +0.00754143   -0.29613420
 H   +0.05491578   +2.73063700   +3.21443670
22
 * E =  +1.355 kcal/mol ; (10) 183_327_308_220
 C   +0.00000000   +0.00000000   +0.00000000
 O   +0.00000000   +0.00000000   +1.41675849
 C   +1.19977670   +0.00000000   +1.98868378
 C   +1.12329217   -0.06146161   +3.48606596
 C   -0.05832611   +0.63376914   +4.11752593
 C   -0.29702746   +2.02817707   +3.74238643
 C   -0.67614154   +2.97986374   +4.59511572
 C   -0.95834051   +4.39127149   +4.22477591
 O   +2.22353035   +0.01171647   +1.36075070
 H   -1.98557356   +4.66111145   +4.46795157
 H   +0.50955834   +0.88053360   -0.37871898
 H   -0.31552984   +5.07798108   +4.77407634
 H   -0.80649253   +4.56042201   +3.16213419
 H   -0.79345758   +2.71967166   +5.64131436
 H   -0.18606413   +2.27949819   +2.69383093
 H   -1.05608599   -0.04447667   +3.77425436
 H   -0.06686294   +0.48914149   +5.19487131
 H   +1.10759896   -1.12029384   +3.74841282
 H   +2.06236854   +0.33923226   +3.86058168
 H   +0.50287641   -0.88488685   -0.37722378
 H   -1.04093779   +0.00308864   -0.29554213
 H   -1.81311118   -0.69597485   +3.56959267
22
 * E =  +1.801 kcal/mol ; (11) 181_315_300_002
 C   +0.00000000   +0.00000000   +0.00000000
 O   +0.00000000   +0.00000000   +1.41607026
 C   +1.19621258   +0.00000000   +1.98816731
 C   +1.11163621   -0.01518120   +3.48764286
 C   +0.11555642   +0.93890731   +4.09392506
 C   +0.27256251   +2.37251320   +3.83574923
 C   +1.20776209   +2.94097523   +3.07434872
 C   +1.31713219   +4.40505707   +2.83643734
 O   +2.22303784   -0.01971855   +1.36278466
 H   +2.28046296   +4.78599857   +3.17294055
 H   +0.50883543   +0.88180105   -0.37656259
 H   +1.24453803   +4.63427002   +1.77384785
 H   +0.53453654   +4.95221171   +3.35548843
 H   +1.96020466   +2.32443730   +2.59780264
 H   -0.45679186   +3.01393486   +4.31726208
 H   -1.03044712   +0.60041240   +3.65489981
 H   -0.04504495   +0.72678533   +5.14835830
 H   +0.85265242   -1.03370794   +3.77620442
 H   +2.11614132   +0.17799449   +3.85849257
 H   +0.50191297   -0.88476435   -0.37887829
 H   -1.04099353   +0.00540742   -0.29527097
 H   -1.93568474   +0.27631345   +3.38327794
22
 * E =  +8.272 kcal/mol ; (12) 357_173_178_219
 C   +0.00000000   +0.00000000   +0.00000000
 O   +0.00000000   +0.00000000   +1.40870497
 C   +1.14277498   +0.00000000   +2.10533933
 C   +2.43334609   -0.06776180   +1.33236569
 C   +3.63118128   +0.12034470   +2.22299427
 C   +4.93459309   +0.03359331   +1.56238128
 C   +6.01133771   -0.54286507   +2.09450846
 C   +7.35118882   -0.60188307   +1.45416581
 O   +1.09545168   +0.02602312   +3.29944291
 H   +8.10057890   -0.10905563   +2.07260893
 H   +0.40265987   +0.92889104   -0.39779785
 H   +7.68026675   -1.63218433   +1.32508844
 H   +7.34775620   -0.12098335   +0.47952941
 H   +5.91794811   -1.00542978   +3.07053354
 H   +5.02420790   +0.50059901   +0.58668559
 H   +3.49718678   +1.28788983   +2.65036230
 H   +3.56049810   -0.45879407   +3.13788255
 H   +2.47740033   -1.03999910   +0.83495107
 H   +2.43025654   +0.67419818   +0.53386177
 H   +0.55414250   -0.84351935   -0.40488482
 H   -1.03848139   -0.08713691   -0.29400359
 H   +3.29813822   +2.24897624   +2.95076548
22
 * E =  +8.329 kcal/mol ; (13) 357_173_174_010
 C   +0.00000000   +0.00000000   +0.00000000
 O   +0.00000000   +0.00000000   +1.40867997
 C   +1.14158515   +0.00000000   +2.10662544
 C   +2.43168118   -0.06318757   +1.33244236
 C   +3.62449531   +0.11340117   +2.22656567
 C   +4.95057347   -0.05418586   +1.62590344
 C   +5.22135556   -0.16334319   +0.32535158
 C   +6.58850271   -0.30851128   -0.24193610
 O   +1.09150994   +0.02642008   +3.30072283
 H   +6.68388821   -1.23323267   -0.80972779
 H   +0.39514007   +0.93225048   -0.39749667
 H   +6.81673221   +0.50641892   -0.92806236
 H   +7.34273775   -0.31235984   +0.54038331
 H   +4.40678382   -0.15455940   -0.38937541
 H   +5.77984275   -0.06407400   +2.32320808
 H   +3.54292320   +1.29099218   +2.61757933
 H   +3.50439132   -0.40854621   +3.17054133
 H   +2.47632841   -1.02964419   +0.82354748
 H   +2.42495388   +0.68883124   +0.54366903
 H   +0.56127168   -0.83888051   -0.40466698
 H   -1.03771616   -0.09575669   -0.29397659
 H   +3.36528413   +2.28274976   +2.86425527
22
 * E =  +8.541 kcal/mol ; (14) 002_190_081_221
 C   +0.00000000   +0.00000000   +0.00000000
 O   +0.00000000   +0.00000000   +1.40895602
 C   +1.14242540   +0.00000000   +2.10707439
 C   +2.43612141   +0.05290281   +1.33261473
 C   +3.62769595   -0.18767293   +2.22092148
 C   +3.93164805   -1.58475275   +2.53154100
 C   +4.30010286   -2.02514571   +3.73326548
 C   +4.63570045   -3.43546220   +4.05725201
 O   +1.09241778   -0.01023658   +3.30116562
 H   +5.65137237   -3.51675175   +4.44296721
 H   +0.57434970   +0.82949510   -0.40529406
 H   +3.97432482   -3.82481157   +4.83010997
 H   +4.55242653   -4.07601885   +3.18324470
 H   +4.34843507   -1.31286277   +4.54839155
 H   +3.86730492   -2.29307441   +1.71153872
 H   +4.58186840   +0.27883740   +1.56487613
 H   +3.61152375   +0.44637102   +3.10201564
 H   +2.41541308   -0.66758873   +0.51621856
 H   +2.50005972   +1.03755847   +0.86478145
 H   +0.37990869   -0.93847673   -0.39773567
 H   -1.03615925   +0.11202938   -0.29389473
 H   +5.28603652   +0.76563479   +0.98899620
22
 * E =  +8.666 kcal/mol ; (15) 000_178_299_221
 C   +0.00000000   +0.00000000   +0.00000000
 O   +0.00000000   +0.00000000   +1.40862900
 C   +1.14046174   +0.00000000   +2.11025127
 C   +2.43089209   -0.01037338   +1.33314429
 C   +3.65865393   +0.04613037   +2.20511178
 C   +3.83492750   +1.21717462   +3.06439365
 C   +5.00807911   +1.82213289   +3.25431608
 C   +5.22810704   +2.98303755   +4.15612606
 O   +1.08427641   -0.00075685   +3.30429862
 H   +5.94930757   +2.73979791   +4.93587952
 H   +0.44432568   +0.90820311   -0.40089227
 H   +5.63184173   +3.83552618   +3.61103914
 H   +4.30342743   +3.29167085   +4.63594351
 H   +5.87763072   +1.44750056   +2.72484190
 H   +2.96151190   +1.56697165   +3.59854493
 H   +3.55485020   -0.97488785   +2.93596210
 H   +4.55402521   -0.18405741   +1.63317161
 H   +2.45097406   -0.91686706   +0.72684500
 H   +2.42773647   +0.82166447   +0.62666992
 H   +0.51440710   -0.86893204   -0.40358066
 H   -1.04150963   -0.04073734   -0.29343562
 H   +3.45653409   -1.86928934   +3.40090843
22
 * E =  +9.138 kcal/mol ; (16) 001_190_075_008
 C   +0.00000000   +0.00000000   +0.00000000
 O   +0.00000000   +0.00000000   +1.40888824
 C   +1.14259537   +0.00000000   +2.10788859
 C   +2.43614233   +0.02334808   +1.33194389
 C   +3.62742204   -0.22184562   +2.21306558
 C   +3.88183029   -1.58949016   +2.67441075
 C   +3.25152319   -2.69173985   +2.27263930
 C   +3.54956185   -4.06084777   +2.76966600
 O   +1.09214503   +0.01248143   +3.30152831
 H   +2.67757893   -4.49782584   +3.25453613
 H   +0.57863007   +0.82659795   -0.40506374
 H   +3.82210634   -4.72601372   +1.95100524
 H   +4.36655968   -4.05254022   +3.48601249
 H   +2.44504268   -2.61524552   +1.55311717
 H   +4.67072276   -1.69174021   +3.40964764
 H   +4.60072416   +0.11939946   +1.50852082
 H   +3.69004041   +0.50257126   +3.01966502
 H   +2.40423581   -0.69210782   +0.51258543
 H   +2.51999918   +1.00591264   +0.86403413
 H   +0.37512999   -0.94002616   -0.39896236
 H   -1.03554375   +0.11735764   -0.29405370
 H   +5.31900250   +0.48150075   +0.86008510
22
 * E =  +9.667 kcal/mol ; (17) 007_086_061_216
 C   +0.00000000   +0.00000000   +0.00000000
 O   +0.00000000   +0.00000000   +1.40880599
 C   +1.13970148   +0.00000000   +2.11115954
 C   +2.44625949   +0.16718476   +1.37785012
 C   +2.77979244   +1.63553565   +1.18648437
 C   +2.93777104   +2.42196173   +2.41293385
 C   +2.55824628   +3.69209405   +2.53950063
 C   +2.72982142   +4.51178795   +3.76643268
 O   +1.08555439   -0.08723567   +3.30283654
 H   +3.33610738   +5.39434372   +3.56522266
 H   +0.55696868   +0.83942300   -0.40781236
 H   +1.76842485   +4.86705581   +4.13469043
 H   +3.20732125   +3.94303978   +4.55923589
 H   +2.07970965   +4.17614756   +1.69509129
 H   +3.40208273   +1.92268389   +3.25513411
 H   +3.86378270   +1.60030885   +0.59822267
 H   +2.14510429   +2.13315548   +0.45637230
 H   +3.20094088   -0.29291858   +2.00851130
 H   +2.45079896   -0.34474592   +0.41942012
 H   +0.39796557   -0.93206235   -0.39497533
 H   -1.03835299   +0.09109688   -0.29385898
 H   +4.74712831   +1.47755330   +0.03462380
22
 * E =  +9.994 kcal/mol ; (18) 012_080_069_008
 C   +0.00000000   +0.00000000   +0.00000000
 O   +0.00000000   +0.00000000   +1.40899027
 C   +1.13747762   +0.00000000   +2.11560240
 C   +2.43100100   +0.28672662   +1.39570237
 C   +2.65616689   +1.76582434   +1.15434004
 C   +2.93070756   +2.63741491   +2.30427213
 C   +3.15328421   +2.24890839   +3.55891249
 C   +3.44879024   +3.17964697   +4.67902764
 O   +1.08184048   -0.19749315   +3.29439255
 H   +2.69642059   +3.09215110   +5.46151136
 H   +0.52170514   +0.85930802   -0.41203106
 H   +4.40744416   +2.94217781   +5.13879806
 H   +3.47802657   +4.21353967   +4.34518162
 H   +3.08547992   +1.19968922   +3.81325654
 H   +2.97148019   +3.69639551   +2.07734150
 H   +3.64757083   +1.79057873   +0.42748581
 H   +1.91542279   +2.20363989   +0.48841000
 H   +3.22522268   -0.11121389   +2.01921970
 H   +2.46814789   -0.23808951   +0.44370452
 H   +0.43498707   -0.91635992   -0.39278412
 H   -1.04143032   +0.04790251   -0.29306658
 H   +4.46664316   +1.68706207   -0.24423061
22
 * E = +10.064 kcal/mol ; (19) 357_259_300_217
 C   +0.00000000   +0.00000000   +0.00000000
 O   +0.00000000   +0.00000000   +1.41050102
 C   +1.12776580   +0.00000000   +2.12534237
 C   +2.45611718   -0.07800896   +1.41574354
 C   +3.04829694   -1.47831177   +1.45831345
 C   +3.32163793   -2.05335066   +2.77810669
 C   +4.37595670   -2.82616007   +3.03694016
 C   +4.66691866   -3.44917569   +4.35426945
 O   +1.05162696   +0.03966025   +3.32027974
 H   +4.70165822   -4.53514792   +4.27269580
 H   +0.41046372   +0.92689395   -0.39444162
 H   +5.63810090   -3.13203318   +4.73211467
 H   +3.91252602   -3.18751556   +5.09078543
 H   +5.08463504   -3.02397149   +2.23972204
 H   +2.60768358   -1.84192749   +3.56366294
 H   +2.21587672   -2.21072301   +0.88895071
 H   +3.89857368   -1.56107018   +0.78587571
 H   +2.39402700   +0.25882462   +0.38634650
 H   +3.11939153   +0.59989684   +1.94883022
 H   +0.54125807   -0.85195174   -0.40243876
 H   -1.04079260   -0.07476650   -0.28979281
 H   +1.53554480   -2.78701986   +0.34847734
22
 * E = +10.428 kcal/mol ; (20) 005_096_312_221
 C   +0.00000000   +0.00000000   +0.00000000
 O   +0.00000000   +0.00000000   +1.41083822
 C   +1.13596392   +0.00000000   +2.11948201
 C   +2.45100107   +0.12530225   +1.39329097
 C   +2.93950991   +1.56267648   +1.37419020
 C   +1.98902847   +2.60703086   +0.98705424
 C   +2.28536880   +3.64015045   +0.19808112
 C   +1.35008060   +4.74201662   -0.14802834
 O   +1.07182216   -0.05733604   +3.31222917
 H   +1.74031017   +5.70227194   +0.18740477
 H   +0.56013466   +0.84007149   -0.40324890
 H   +1.21336326   +4.81952346   -1.22593971
 H   +0.37602557   +4.59524463   +0.31066831
 H   +3.28253989   +3.69809595   -0.22416881
 H   +0.99558850   +2.55337345   +1.42179141
 H   +3.28208383   +1.78328020   +2.56167388
 H   +3.88942649   +1.64704650   +0.85277928
 H   +3.16070216   -0.48448914   +1.94508755
 H   +2.39834057   -0.26137710   +0.37843423
 H   +0.39386204   -0.93470711   -0.39306828
 H   -1.03915846   +0.09295707   -0.29095413
 H   +3.64045594   +1.87356500   +3.51130225
22
 * E = +10.763 kcal/mol ; (21) 349_278_182_218
 C   +0.00000000   +0.00000000   +0.00000000
 O   +0.00000000   +0.00000000   +1.40925781
 C   +1.14086494   +0.00000000   +2.11291626
 C   +2.43088743   -0.25035111   +1.37819862
 C   +2.67029673   -1.73128702   +1.15478333
 C   +3.92793112   -2.06753009   +0.48571717
 C   +4.06970596   -3.04135466   -0.41228802
 C   +5.35108381   -3.42004134   -1.06290066
 O   +1.08984655   +0.15163074   +3.29731247
 H   +5.60829061   -4.45541251   -0.84239869
 H   +0.40107849   +0.93190737   -0.39251732
 H   +5.28134121   -3.33837068   -2.14678683
 H   +6.16925276   -2.78938012   -0.72584013
 H   +3.19360804   -3.61436803   -0.69540463
 H   +4.80062698   -1.49292937   +0.77729862
 H   +2.71535842   -2.21944743   +2.31677066
 H   +1.81644690   -2.25573874   +0.73188494
 H   +2.45313856   +0.27488083   +0.42413799
 H   +3.22303217   +0.15773912   +1.99863481
 H   +0.55545590   -0.83906813   -0.41098402
 H   -1.03874259   -0.08687649   -0.29374897
 H   +2.71327893   -2.58467766   +3.26376757
22
 * E = +10.807 kcal/mol ; (22) 349_279_175_010
 C   +0.00000000   +0.00000000   +0.00000000
 O   +0.00000000   +0.00000000   +1.40959032
 C   +1.14134589   +0.00000000   +2.11288180
 C   +2.42781275   -0.25431777   +1.37537980
 C   +2.63752195   -1.73519074   +1.14240509
 C   +3.80180706   -2.12834957   +0.34235359
 C   +4.79761890   -1.32790106   -0.03585319
 C   +5.98331823   -1.76897059   -0.81710344
 O   +1.09102965   +0.15326293   +3.29712942
 H   +6.06384413   -1.22013540   -1.75447155
 H   +0.40186345   +0.93173060   -0.39214765
 H   +6.90411254   -1.58393941   -0.26523145
 H   +5.93468865   -2.82980840   -1.04750735
 H   +4.76445776   -0.27855265   +0.23197628
 H   +3.85201416   -3.17657958   +0.07253285
 H   +2.80035913   -2.21813127   +2.28741336
 H   +1.73227615   -2.25813851   +0.84159938
 H   +2.45197917   +0.27732997   +0.42455056
 H   +3.22441882   +0.14141418   +1.99784520
 H   +0.55535032   -0.83918028   -0.41112242
 H   -1.03884937   -0.08579995   -0.29363164
 H   +2.91511505   -2.54223552   +3.25382841
22
 * E = +11.114 kcal/mol ; (23) 352_274_277_014
 C   +0.00000000   +0.00000000   +0.00000000
 O   +0.00000000   +0.00000000   +1.40960697
 C   +1.13261674   +0.00000000   +2.11911126
 C   +2.43980378   -0.17976462   +1.38568443
 C   +2.82360981   -1.63648757   +1.17427454
 C   +3.49022670   -2.34789435   +2.27354299
 C   +3.57147860   -1.94532346   +3.54079285
 C   +4.24452663   -2.71724223   +4.61781252
 O   +1.06724575   +0.12683909   +3.30776834
 H   +5.04485242   -2.13585273   +5.07376204
 H   +0.38313216   +0.94039626   -0.39071319
 H   +3.54168591   -2.95826804   +5.41436266
 H   +4.66769466   -3.64565853   +4.24310713
 H   +3.11189061   -1.00927368   +3.83111172
 H   +3.92627762   -3.30285627   +2.00405833
 H   +1.77812058   -2.27372149   +0.94176501
 H   +3.34697476   -1.77531228   +0.23169345
 H   +2.40981928   +0.33086714   +0.42811296
 H   +3.19755851   +0.30810073   +1.99319744
 H   +0.56639085   -0.83248995   -0.40842714
 H   -1.03744382   -0.10617245   -0.29178261
 H   +0.88986691   -2.79723654   +0.75666784
