22
 * E =  +0.000 kcal/mol ; (1) 180_178_177_119
 C   +0.00000000   +0.00000000   +0.00000000
 O   +0.00000000   +0.00000000   +1.41695964
 C   +1.20154278   +0.00000000   +1.98786509
 C   +1.10266094   +0.00821967   +3.48084777
 C   +2.46540088   -0.04542076   +4.14501010
 C   +2.37111615   +0.02991874   +5.61457583
 C   +2.72746098   -0.78450536   +6.58352506
 C   +2.56151592   -0.54035675   +8.04447696
 O   +2.22541390   -0.00407157   +1.35942687
 H   +1.95193656   -1.31860824   +8.50055429
 H   +0.50403983   +0.88367821   -0.37858892
 H   +3.52537794   -0.55312516   +8.55051591
 H   +2.08942573   +0.41892747   +8.23300291
 H   +3.19344151   -1.72772294   +6.29996963
 H   +1.77219587   +1.25412094   +6.04276939
 H   +2.98105493   -0.96453486   +3.85943964
 H   +3.07601551   +0.77240672   +3.76384602
 H   +0.55946537   +0.90559482   +3.77541398
 H   +0.47931528   -0.82967494   +3.78798950
 H   +0.50636800   -0.88234163   -0.37856901
 H   -1.04090431   -0.00123836   -0.29592885
 H   +1.41118132   +2.01252584   +6.28899719
22
 * E =  +0.035 kcal/mol ; (2) 178_159_290_102
 C   +0.00000000   +0.00000000   +0.00000000
 O   +0.00000000   +0.00000000   +1.41694487
 C   +1.20084108   +0.00000000   +1.98722106
 C   +1.10868135   +0.05058429   +3.48199781
 C   +2.38198080   -0.45371600   +4.13986322
 C   +2.55618203   -1.91157016   +3.97695223
 C   +3.30311683   -2.63535267   +3.17223704
 C   +3.34836300   -4.12350982   +3.11555283
 O   +2.22457759   -0.01025569   +1.35820379
 H   +3.07502787   -4.47983239   +2.12373576
 H   +0.50810339   +0.88127070   -0.37893037
 H   +4.35443015   -4.48743612   +3.31741430
 H   +2.67178988   -4.56830968   +3.83896791
 H   +3.94150966   -2.09632810   +2.47390370
 H   +1.71445883   -2.65343346   +4.86382540
 H   +3.23764077   +0.05826596   +3.69741481
 H   +2.36082352   -0.19844893   +5.19842396
 H   +0.92395550   +1.09091025   +3.75162379
 H   +0.23650283   -0.51334104   +3.80269458
 H   +0.50261060   -0.88489832   -0.37726875
 H   -1.04085998   +0.00277992   -0.29604771
 H   +1.20389894   -3.08954627   +5.42298999
22
 * E =  +0.300 kcal/mol ; (3) 180_180_180_000
 C   +0.00000000   +0.00000000   +0.00000000
 O   +0.00000000   +0.00000000   +1.41726695
 C   +1.20172094   +0.00000000   +1.98804899
 C   +1.09996974   +0.00000686   +3.48135375
 C   +2.46288999   -0.00003922   +4.14430729
 C   +2.38922196   -0.00002065   +5.61803870
 C   +1.40190163   +0.00002068   +6.48735139
 C   +1.54125133   +0.00003252   +7.97223444
 O   +2.22555803   -0.00000356   +1.36041050
 H   +1.06117007   +0.87542749   +8.40639166
 H   +0.50511472   +0.88307350   -0.37843198
 H   +1.06111480   -0.87532259   +8.40641086
 H   +2.58513559   +0.00000291   +8.27017408
 H   +0.38177422   +0.00004953   +6.10480048
 H   +3.69391239   -0.00005749   +6.19926869
 H   +3.03105454   -0.86546345   +3.80412382
 H   +3.03112108   +0.86533353   +3.80410440
 H   +0.51546152   +0.86995027   +3.77845165
 H   +0.51539602   -0.86988971   +3.77845851
 H   +0.50518282   -0.88303423   -0.37843223
 H   -1.04092069   -0.00003924   -0.29583106
 H   +4.49538289   -0.00008013   +6.54317625
22
 * E =  +0.786 kcal/mol ; (4) 182_219_070_000
 C   +0.00000000   +0.00000000   +0.00000000
 O   +0.00000000   +0.00000000   +1.41751070
 C   +1.20390532   +0.00000000   +1.98478418
 C   +1.12537727   -0.04324383   +3.48134259
 C   +2.17486032   +0.85072430   +4.12385120
 C   +1.90461292   +2.29144528   +3.94310595
 C   +0.94995871   +2.97233614   +3.34720030
 C   +0.85666168   +4.45835984   +3.26274368
 O   +2.22510553   +0.00832541   +1.35344781
 H   +0.85930686   +4.78709809   +2.22484293
 H   +0.50590586   +0.88331622   -0.37675358
 H   -0.07067973   +4.81449836   +3.70818540
 H   +1.68721216   +4.93552067   +3.77354034
 H   +0.14706771   +2.41638219   +2.86313740
 H   +2.91946856   +3.09132727   +4.55496592
 H   +2.23647287   +0.62608362   +5.18838045
 H   +3.14772906   +0.61003575   +3.69570303
 H   +0.12127685   +0.21599394   +3.80413172
 H   +1.30434936   -1.07799695   +3.77207295
 H   +0.50648092   -0.88243111   -0.37806677
 H   -1.04079169   -0.00072604   -0.29628212
 H   +3.54195251   +3.56956546   +4.93369657
22
 * E =  +0.786 kcal/mol ; (5) 180_311_296_357
 C   +0.00000000   +0.00000000   +0.00000000
 O   +0.00000000   +0.00000000   +1.41666613
 C   +1.20089125   +0.00000000   +1.98757398
 C   +1.10825126   +0.00468667   +3.48356570
 C   +0.16614705   +1.06981191   +4.03181111
 C   +0.60710686   +2.45098228   +3.74896194
 C   +1.66796150   +2.97013301   +3.16877978
 C   +1.93475384   +4.42536507   +2.98100215
 O   +2.22425652   -0.02273688   +1.35814146
 H   +2.86362758   +4.71288062   +3.47054075
 H   +0.51041623   +0.88106996   -0.37576107
 H   +2.04562891   +4.66385103   +1.92465359
 H   +1.13118262   +5.03171361   +3.38746982
 H   +2.42805964   +2.29231245   +2.78269443
 H   -0.34411555   +3.40486188   +4.22722335
 H   -0.82892739   +0.91511448   +3.61620408
 H   +0.07353378   +0.93630922   +5.10983981
 H   +0.75124197   -0.97782071   +3.79040620
 H   +2.11558727   +0.12801736   +3.86867374
 H   +0.50079570   -0.88554430   -0.37843087
 H   -1.04069881   +0.00670185   -0.29654267
 H   -0.93116145   +3.97747510   +4.52451701
22
 * E =  +0.978 kcal/mol ; (6) 182_207_076_122
 C   +0.00000000   +0.00000000   +0.00000000
 O   +0.00000000   +0.00000000   +1.41734878
 C   +1.20187288   +0.00000000   +1.98499236
 C   +1.11562462   -0.05595325   +3.48066434
 C   +2.32467666   +0.57801242   +4.14991852
 C   +2.30123287   +2.05412757   +4.11140872
 C   +2.33070915   +2.96332693   +5.06187048
 C   +2.30821266   +4.44156791   +4.87373883
 O   +2.22457753   +0.00771575   +1.35536410
 H   +1.45549530   +4.88429275   +5.38584645
 H   +0.50857162   +0.88184869   -0.37620748
 H   +3.20341942   +4.89790456   +5.29298265
 H   +2.25146496   +4.70502735   +3.82228325
 H   +2.38214123   +2.60929384   +6.09141085
 H   +2.23363937   +2.60359067   +2.78749406
 H   +2.36912967   +0.26013027   +5.19400919
 H   +3.22260089   +0.20751027   +3.65697968
 H   +0.18571200   +0.40046701   +3.80692066
 H   +1.05939137   -1.11334348   +3.74108336
 H   +0.50299766   -0.88437590   -0.37849910
 H   -1.04090753   +0.00345075   -0.29585138
 H   +2.19017553   +2.96573713   +1.99719166
22
 * E =  +1.003 kcal/mol ; (7) 181_319_298_110
 C   +0.00000000   +0.00000000   +0.00000000
 O   +0.00000000   +0.00000000   +1.41625476
 C   +1.20501476   +0.00000000   +1.98434880
 C   +1.12324392   -0.02350258   +3.48085445
 C   +0.03230163   +0.87394432   +4.05121059
 C   +0.25054567   +2.29755168   +3.72812626
 C   -0.37520110   +3.13874296   +2.93406307
 C   -0.01134926   +4.56472668   +2.70021357
 O   +2.22355987   -0.01214898   +1.34939039
 H   +0.20142338   +4.74180188   +1.64733146
 H   +0.50673904   +0.88294215   -0.37655017
 H   -0.83337673   +5.22370073   +2.97457490
 H   +0.86298463   +4.84836847   +3.27770303
 H   -1.24229220   +2.76055913   +2.39349420
 H   +1.38094724   +2.83512601   +4.42045155
 H   -0.93828774   +0.56402380   +3.66125244
 H   +0.00309381   +0.73982568   +5.13217862
 H   +0.94099034   -1.05661386   +3.77706912
 H   +2.10304482   +0.25486482   +3.85593945
 H   +0.50536917   -0.88276510   -0.37901010
 H   -1.04069534   +0.00065885   -0.29745846
 H   +2.06209435   +3.15324475   +4.86427029
22
 * E =  +1.121 kcal/mol ; (8) 182_317_178_118
 C   +0.00000000   +0.00000000   +0.00000000
 O   +0.00000000   +0.00000000   +1.41692707
 C   +1.20330748   +0.00000000   +1.98796283
 C   +1.12027242   -0.03828473   +3.48260532
 C   +0.05171695   +0.87606873   +4.06901057
 C   -0.01740394   +0.77074772   +5.53825544
 C   +0.18629666   +1.62897317   +6.51339888
 C   +0.06568314   +1.34837774   +7.97211283
 O   +2.22350129   +0.00803932   +1.35451537
 H   +1.00779691   +1.54172247   +8.48221181
 H   +0.51081254   +0.87984415   -0.37809909
 H   -0.68261905   +1.99345231   +8.42940992
 H   -0.21626299   +0.31580204   +8.15332080
 H   +0.46797817   +2.64471101   +6.23739111
 H   -0.38894638   -0.54549891   +5.95421247
 H   +0.25836802   +1.91442219   +3.79681326
 H   -0.91177408   +0.62269936   +3.62986702
 H   +0.90902456   -1.06947500   +3.76760335
 H   +2.10462529   +0.20711859   +3.86700566
 H   +0.50081782   -0.88575592   -0.37791577
 H   -1.04080315   +0.00558386   -0.29642927
 H   -0.62691952   -1.35224347   +6.19291190
22
 * E =  +1.191 kcal/mol ; (9) 179_313_296_243
 C   +0.00000000   +0.00000000   +0.00000000
 O   +0.00000000   +0.00000000   +1.41631808
 C   +1.20345655   +0.00000000   +1.98584969
 C   +1.11013282   +0.02599914   +3.48175374
 C   +0.12644909   +1.06181508   +4.01516686
 C   +0.51477086   +2.45035160   +3.69619760
 C   +0.84250005   +3.47777769   +4.44912633
 C   +1.21838648   +4.83885703   +3.97322074
 O   +2.22459178   -0.03842025   +1.35609551
 H   +0.53919145   +5.58971753   +4.37343937
 H   +0.50260814   +0.88712621   -0.37324638
 H   +2.21942553   +5.10219035   +4.31036328
 H   +1.19606268   +4.89877529   +2.88970810
 H   +0.84046074   +3.32712813   +5.52847635
 H   +0.52007774   +2.73398759   +2.29191485
 H   -0.86226795   +0.85052329   +3.61083189
 H   +0.05940464   +0.95947730   +5.10088198
 H   +0.79471989   -0.96688980   +3.80168598
 H   +2.11100768   +0.19919915   +3.86237468
 H   +0.50860516   -0.88064016   -0.37944809
 H   -1.04071760   -0.00094757   -0.29690048
 H   +0.52099224   +2.92614772   +1.44017159
22
 * E =  +1.266 kcal/mol ; (10) 182_326_182_242
 C   +0.00000000   +0.00000000   +0.00000000
 O   +0.00000000   +0.00000000   +1.41706522
 C   +1.20396907   +0.00000000   +1.98668106
 C   +1.12818935   -0.04232278   +3.48208131
 C   -0.05867595   +0.70066000   +4.07967626
 C   -0.05115838   +0.65581005   +5.55410138
 C   -0.88758617   +0.16234375   +6.44087981
 C   -0.72576180   +0.20434910   +7.92184596
 O   +2.22313146   +0.00491707   +1.35174228
 H   -1.55678588   +0.73213091   +8.38669311
 H   +0.51399390   +0.87812490   -0.37768778
 H   -0.71413595   -0.80138619   +8.33846668
 H   +0.19654919   +0.70254210   +8.20403539
 H   -1.78872364   -0.32204430   +6.06583727
 H   +1.10854568   +1.28914797   +6.10070050
 H   -0.03910939   +1.73840108   +3.74454367
 H   -0.99022137   +0.27177075   +3.70766308
 H   +1.08385016   -1.09299919   +3.76956485
 H   +2.06966130   +0.34565068   +3.85901709
 H   +0.49823711   -0.88727148   -0.37773621
 H   -1.04075933   +0.00912445   -0.29652641
 H   +1.81673574   +1.68883875   +6.42086105
22
 * E =  +1.298 kcal/mol ; (11) 179_044_180_359
 C   +0.00000000   +0.00000000   +0.00000000
 O   +0.00000000   +0.00000000   +1.41720342
 C   +1.20308823   +0.00000000   +1.98746974
 C   +1.11998477   +0.03124959   +3.48209114
 C   +0.08074052   -0.92193680   +4.05690960
 C   +0.01928207   -0.88107801   +5.53094482
 C   +0.67227895   -0.21024672   +6.45472361
 C   +0.45493201   -0.30606303   +7.92683580
 O   +2.22359414   -0.00466133   +1.35453433
 H   +1.36629743   -0.62045999   +8.43249153
 H   +0.49901877   +0.88684871   -0.37769151
 H   +0.17817426   +0.66199814   +8.34086200
 H   -0.33053337   -1.01668209   +8.16455250
 H   +1.44755032   +0.48342719   +6.13161088
 H   -0.97724842   -1.77270025   +6.03122835
 H   -0.89753366   -0.68242543   +3.64288121
 H   +0.30044059   -1.94150856   +3.73645446
 H   +2.11323969   -0.18917927   +3.86001267
 H   +0.87561731   +1.05318993   +3.77392589
 H   +0.51281561   -0.87879223   -0.37774023
 H   -1.04076941   -0.00788816   -0.29629626
 H   -1.58965465   -2.31988789   +6.32605321
22
 * E =  +7.837 kcal/mol ; (12) 001_180_178_120
 C   +0.00000000   +0.00000000   +0.00000000
 O   +0.00000000   +0.00000000   +1.40917353
 C   +1.14321423   +0.00000000   +2.10434329
 C   +2.43350429   +0.01832033   +1.33263403
 C   +3.63433929   +0.01535429   +2.26006534
 C   +4.90757828   -0.00695519   +1.51669949
 C   +5.93594140   +0.81106894   +1.46565762
 C   +7.17070748   +0.62388112   +0.65227608
 O   +1.09621602   -0.01104287   +3.29976989
 H   +7.31282884   +1.45705446   -0.03390377
 H   +0.47901010   +0.88968400   -0.40194363
 H   +8.05124064   +0.58403784   +1.29119567
 H   +7.12711924   -0.29359935   +0.07351656
 H   +5.89169809   +1.71045589   +2.07904950
 H   +5.01933053   -1.17256677   +0.69870282
 H   +3.60005962   +0.89276361   +2.90810158
 H   +3.56442376   -0.84741305   +2.92109783
 H   +2.46724808   -0.84452554   +0.66687061
 H   +2.45485585   +0.89499576   +0.68534394
 H   +0.48200314   -0.88830720   -0.40135488
 H   -1.04219710   -0.00183104   -0.29348013
 H   +5.07184900   -1.89566558   +0.20728358
22
 * E =  +8.154 kcal/mol ; (13) 357_169_286_101
 C   +0.00000000   +0.00000000   +0.00000000
 O   +0.00000000   +0.00000000   +1.40928733
 C   +1.14229389   +0.00000000   +2.10518945
 C   +2.43566492   -0.07706541   +1.33633436
 C   +3.62996773   +0.21319011   +2.22998738
 C   +3.73806782   +1.64819806   +2.56504499
 C   +3.40856447   +2.34660488   +3.62911649
 C   +3.56965404   +3.81765250   +3.79951493
 O   +1.09155648   +0.02374182   +3.30033711
 H   +2.60708573   +4.28949061   +3.98925289
 H   +0.38214987   +0.93774773   -0.39676691
 H   +4.20589080   +4.03950432   +4.65464358
 H   +4.00947831   +4.27398598   +2.91783103
 H   +2.96232604   +1.79975024   +4.45777290
 H   +4.29123872   +2.40168224   +1.48308378
 H   +3.53588633   -0.36491880   +3.14936517
 H   +4.53739971   -0.11619748   +1.72543610
 H   +2.50645395   -1.08133497   +0.91457402
 H   +2.41778334   +0.60924537   +0.49194582
 H   +0.57268980   -0.83094821   -0.40485294
 H   -1.03647162   -0.11017586   -0.29349105
 H   +4.64240721   +2.83893163   +0.81189202
22
 * E =  +8.391 kcal/mol ; (14) 000_180_180_000
 C   +0.00000000   +0.00000000   +0.00000000
 O   +0.00000000   +0.00000000   +1.40882116
 C   +1.14251428   +0.00000000   +2.10581900
 C   +2.43306242   -0.00001351   +1.33305178
 C   +3.63179637   +0.00001816   +2.26076788
 C   +4.91956477   +0.00000417   +1.54064503
 C   +5.26368806   -0.00003110   +0.27082598
 C   +6.65756039   -0.00003935   -0.25984936
 O   +1.09373450   +0.00000839   +3.30069757
 H   +6.83556201   -0.87551778   -0.88201996
 H   +0.48007175   +0.88925997   -0.40184688
 H   +6.83555400   +0.87540651   -0.88206811
 H   +7.38537207   -0.00001379   +0.54549405
 H   +4.47069114   -0.00005704   -0.47670326
 H   +6.01703521   +0.00003653   +2.45296939
 H   +3.57544585   +0.86458857   +2.92097316
 H   +3.57545358   -0.86451545   +2.92102184
 H   +2.45772007   -0.87107777   +0.67746340
 H   +2.45771256   +0.87101228   +0.67741245
 H   +0.48010398   -0.88924144   -0.40184892
 H   -1.04217113   -0.00001791   -0.29360263
 H   +6.68035864   +0.00005674   +3.01950804
22
 * E =  +9.471 kcal/mol ; (15) 002_192_079_120
 C   +0.00000000   +0.00000000   +0.00000000
 O   +0.00000000   +0.00000000   +1.40886888
 C   +1.14156156   +0.00000000   +2.10726397
 C   +2.43595484   +0.05477017   +1.33766398
 C   +3.63884406   -0.24879004   +2.21631300
 C   +3.82208768   -1.69205203   +2.47315687
 C   +4.81956866   -2.50555865   +2.19740788
 C   +4.89388125   -3.95766775   +2.52413798
 O   +1.08979738   -0.00369089   +3.30163865
 H   +5.02801972   -4.55208535   +1.62180274
 H   +0.57974553   +0.82603787   -0.40502202
 H   +5.74537257   -4.16438082   +3.17040868
 H   +3.99364334   -4.29566067   +3.02744446
 H   +5.68493705   -2.08253428   +1.68692257
 H   +2.73716892   -2.33088916   +3.16743290
 H   +4.54110166   +0.12937145   +1.72979013
 H   +3.52346161   +0.28539905   +3.15764093
 H   +2.40711002   -0.62206200   +0.48683420
 H   +2.51705425   +1.06269928   +0.92643024
 H   +0.37373415   -0.94094338   -0.39741435
 H   -1.03552330   +0.11922837   -0.29348472
 H   +2.10938093   -2.75246090   +3.59186191
22
 * E =  +9.983 kcal/mol ; (16) 007_089_182_244
 C   +0.00000000   +0.00000000   +0.00000000
 O   +0.00000000   +0.00000000   +1.40989453
 C   +1.13922528   +0.00000000   +2.11319342
 C   +2.44195974   +0.16447140   +1.37978725
 C   +2.79144461   +1.64981627   +1.25464534
 C   +4.03613529   +1.86076583   +0.49340347
 C   +5.21128041   +2.36004424   +0.80652674
 C   +6.37911220   +2.49877523   -0.10837722
 O   +1.08192562   -0.07380260   +3.30613255
 H   +6.68139741   +3.54111114   -0.19248058
 H   +0.55974062   +0.83782586   -0.40864062
 H   +7.23650258   +1.94826057   +0.27469118
 H   +6.14899914   +2.12736012   -1.10215994
 H   +5.35141736   +2.70908706   +1.82887807
 H   +3.88868295   +1.42310089   -0.86093596
 H   +1.97288181   +2.18554156   +0.77064202
 H   +2.89399164   +2.07730657   +2.25391263
 H   +3.20168446   -0.33283951   +1.97286166
 H   +2.42664642   -0.29632162   +0.39597997
 H   +0.39588317   -0.93290503   -0.39455578
 H   -1.03835041   +0.09381046   -0.29286644
 H   +3.76182940   +1.15809072   -1.68415080
22
 * E = +10.261 kcal/mol ; (17) 006_090_179_358
 C   +0.00000000   +0.00000000   +0.00000000
 O   +0.00000000   +0.00000000   +1.40942341
 C   +1.13869466   +0.00000000   +2.11332468
 C   +2.44375537   +0.14072646   +1.37965978
 C   +2.81304021   +1.62003180   +1.25491073
 C   +4.10126682   +1.83611089   +0.56848824
 C   +5.01101441   +1.03099833   +0.06495108
 C   +6.28125808   +1.44696091   -0.59564763
 O   +1.08076187   -0.05850498   +3.30687701
 H   +7.14155576   +1.04060504   -0.06682534
 H   +0.56402191   +0.83545196   -0.40751494
 H   +6.32778002   +1.07173283   -1.61645196
 H   +6.37651383   +2.52788687   -0.62341097
 H   +4.83856421   -0.04246639   +0.13363643
 H   +4.39681986   +3.22693407   +0.44521227
 H   +2.02919616   +2.16356161   +0.72424027
 H   +2.85221322   +2.05482719   +2.25366781
 H   +3.19191318   -0.36718756   +1.97977319
 H   +2.42140743   -0.32296519   +0.39724783
 H   +0.39045329   -0.93508147   -0.39504643
 H   -1.03771219   +0.09971172   -0.29314919
 H   +4.56864530   +4.07885765   +0.37218202
22
 * E = +10.266 kcal/mol ; (18) 005_092_178_120
 C   +0.00000000   +0.00000000   +0.00000000
 O   +0.00000000   +0.00000000   +1.40902401
 C   +1.13949540   +0.00000000   +2.11221083
 C   +2.44818485   +0.10598558   +1.37742929
 C   +2.87510741   +1.57211574   +1.27315880
 C   +4.18377294   +1.72220226   +0.61090643
 C   +4.56811691   +2.34662044   -0.48092947
 C   +5.95769893   +2.40910440   -1.01552089
 O   +1.08045158   -0.03259898   +3.30666893
 H   +6.00383977   +1.99892138   -2.02285468
 H   +0.57158091   +0.83119714   -0.40627731
 H   +6.30181665   +3.44013754   -1.07517375
 H   +6.64748425   +1.85425322   -0.38732546
 H   +3.80645809   +2.87817632   -1.05106002
 H   +5.22511388   +1.05118504   +1.32811104
 H   +2.12991157   +2.15252771   +0.72119245
 H   +2.91238413   +1.98837859   +2.27954727
 H   +3.17884218   -0.43533389   +1.97002157
 H   +2.41576052   -0.34302669   +0.38952665
 H   +0.38268356   -0.93774121   -0.39614920
 H   -1.03674873   +0.10939129   -0.29334614
 H   +5.85437034   +0.64802662   +1.77779005
22
 * E = +11.085 kcal/mol ; (19) 347_281_289_001
 C   +0.00000000   +0.00000000   +0.00000000
 O   +0.00000000   +0.00000000   +1.40903964
 C   +1.13663812   +0.00000000   +2.11793004
 C   +2.42635192   -0.29905509   +1.40164944
 C   +2.64631671   -1.79473538   +1.14453674
 C   +2.94594781   -2.59655162   +2.34858942
 C   +3.05462438   -2.33609801   +3.63253405
 C   +3.39507037   -3.32705464   +4.69306629
 O   +1.07770301   +0.21034814   +3.29462274
 H   +4.29391949   -3.02440896   +5.22745402
 H   +0.43773500   +0.91545252   -0.39217352
 H   +2.59450066   -3.38894297   +5.42791214
 H   +3.55915644   -4.31664646   +4.27769191
 H   +2.86027843   -1.31929398   +3.96627006
 H   +3.18792202   -3.95635051   +1.98606646
 H   +1.78143211   -2.22698660   +0.63942338
 H   +3.47588660   -1.89460933   +0.44385679
 H   +2.46514421   +0.23139371   +0.45303311
 H   +3.22543029   +0.08402100   +2.02841250
 H   +0.51865972   -0.86057544   -0.41342925
 H   -1.04163139   -0.04414456   -0.29294105
 H   +3.33898707   -4.78225966   +1.74604276
