22
 * E =  +0.000 kcal/mol ; (1) 179_172_292_247
 C   +0.00000000   +0.00000000   +0.00000000
 C   +0.00000000   +0.00000000   +1.49720637
 O   +1.23577378   +0.00000000   +1.98875889
 O   -0.97984172   +0.01469893   +2.19356686
 C   +1.32857991   +0.02479204   +3.40223860
 H   +2.38663775   +0.02507976   +3.62937262
 H   +0.85209204   +0.91626591   +3.79789888
 H   +0.84679269   -0.84952520   +3.82844342
 C   -1.38990577   -0.18333625   -0.58836999
 C   -1.94391969   -1.53990825   -0.32682461
 C   -2.16488170   -2.45770180   -1.27934536
 C   -2.77998632   -3.79420104   -1.03223768
 H   +0.43497659   +0.94783807   -0.31721206
 H   -2.11429672   -1.79905955   +0.71079576
 H   -2.05938186   -2.15873113   -2.31621403
 H   -3.80995926   -3.80801420   -1.38698318
 H   -2.24700329   -4.58261944   -1.55762614
 H   -2.78572264   -4.03379742   +0.02751303
 H   +0.67988993   -0.77725895   -0.34402458
 H   -1.34223007   -0.00620660   -1.66113199
 H   -2.04944674   +0.57023004   -0.15824692
 H   -0.28445591   -3.04086143   -1.52831361
22
 * E =  +0.262 kcal/mol ; (2) 180_182_183_245
 C   +0.00000000   +0.00000000   +0.00000000
 C   +0.00000000   +0.00000000   +1.49629167
 O   +1.23717435   +0.00000000   +1.98731995
 O   -0.97924342   -0.00229490   +2.19217876
 C   +1.32932061   -0.00181650   +3.40100923
 H   +2.38726710   -0.00214489   +3.62886614
 H   +0.84993827   +0.88073308   +3.81284365
 H   +0.84952131   -0.88508959   +3.81089382
 C   -1.40265174   +0.03963149   -0.57911948
 C   -1.38300763   -0.02448990   -2.06463857
 C   -1.79463912   +0.96313890   -2.87289656
 C   -1.84340807   +0.86908701   -4.36089095
 H   +0.58911302   +0.84966231   -0.34228604
 H   -0.94469359   -0.91061526   -2.51163479
 H   -2.29069115   +1.81645596   -2.42497673
 H   -2.87162735   +0.74269960   -4.69783074
 H   -1.45819298   +1.77036612   -4.83063733
 H   -1.26445562   +0.02308304   -4.72137190
 H   +0.54083608   -0.88687364   -0.33042382
 H   -1.90727914   +0.94454843   -0.24763314
 H   -1.97200567   -0.79495024   -0.16966278
 H   -0.20039714   +2.12286395   -2.70870465
22
 * E =  +0.380 kcal/mol ; (3) 181_189_066_119
 C   +0.00000000   +0.00000000   +0.00000000
 C   +0.00000000   +0.00000000   +1.49752204
 O   +1.23660631   +0.00000000   +1.98798201
 O   -0.97898102   -0.01583926   +2.19439311
 C   +1.33075803   -0.03063606   +3.40142663
 H   +2.38899420   -0.02850561   +3.62771442
 H   +0.84625513   +0.84006777   +3.83192392
 H   +0.85761961   -0.92545335   +3.79351261
 C   -1.38348293   +0.21022722   -0.59180017
 C   -1.94099292   +1.56189980   -0.31271998
 C   -2.27501859   +2.44790720   -1.26231488
 C   -2.76102310   +3.83168561   -0.98685809
 H   +0.70112045   +0.75864191   -0.34209967
 H   -2.13437713   +1.79830236   +0.72624659
 H   -2.01916963   +2.22127024   -2.29132585
 H   -1.97601464   +4.55786419   -1.19537464
 H   -3.61223097   +4.08844344   -1.61224835
 H   -3.05669116   +3.94366636   +0.05263810
 H   +0.41305426   -0.95858754   -0.31488741
 H   -2.05278979   -0.54576382   -0.18006247
 H   -1.33384084   +0.04940982   -1.66713114
 H   -3.99794353   +1.64557260   -1.80476708
22
 * E =  +0.513 kcal/mol ; (4) 178_157_290_109
 C   +0.00000000   +0.00000000   +0.00000000
 C   +0.00000000   +0.00000000   +1.49851730
 O   +1.23428969   +0.00000000   +1.99511761
 O   -0.98211481   +0.02635437   +2.19011420
 C   +1.31977947   +0.05359316   +3.40830985
 H   +0.85022246   +0.95806357   +3.78231389
 H   +0.82582049   -0.80629450   +3.84951887
 H   +2.37648329   +0.04793416   +3.64171799
 C   -1.30331088   -0.54329467   -0.56406942
 C   -1.44523070   -2.00886675   -0.33958183
 C   -2.31734706   -2.55344265   +0.52005723
 C   -2.39232087   -4.00970484   +0.83274465
 H   +0.15278945   +1.03383350   -0.31245016
 H   -0.81368883   -2.66237382   -0.93191127
 H   -2.87748681   -1.88406772   +1.16205325
 H   -1.96898882   -4.20414105   +1.81757607
 H   -3.42033034   -4.36247660   +0.84956479
 H   -1.84139695   -4.59972964   +0.10499169
 H   +0.86369330   -0.55909123   -0.35214540
 H   -1.33709979   -0.32598618   -1.63141480
 H   -2.13310646   -0.01868521   -0.09584987
 H   -3.94348560   -2.42568175   -0.61816481
22
 * E =  +0.554 kcal/mol ; (5) 180_180_181_004
 C   +0.00000000   +0.00000000   +0.00000000
 C   +0.00000000   +0.00000000   +1.49620532
 O   +1.23801282   +0.00000000   +1.98487729
 O   -0.97775064   +0.00027843   +2.19412984
 C   +1.33310654   -0.00293025   +3.39834423
 H   +2.39154851   -0.00573190   +3.62389110
 H   +0.85652940   +0.88026179   +3.81209047
 H   +0.85259608   -0.88562071   +3.80851827
 C   -1.39832569   +0.00872077   -0.56932796
 C   -1.46753443   -0.00548630   -2.05564393
 C   -0.43185022   -0.10835883   -2.90200924
 C   -0.56566658   -0.05820712   -4.38765226
 H   +0.57473596   +0.86456241   -0.33142217
 H   -2.46674251   +0.00316047   -2.47493621
 H   +0.57679796   -0.04543295   -2.51373609
 H   -0.21893122   +0.90181625   -4.76824053
 H   +0.03029271   -0.83007328   -4.86788758
 H   -1.60009245   -0.18830752   -4.69406067
 H   +0.55716092   -0.87555087   -0.33318935
 H   -1.94116112   +0.87381302   -0.18702337
 H   -1.94603370   -0.85139577   -0.18012152
 H   -0.09724635   -2.04332059   -2.68484939
22
 * E =  +0.654 kcal/mol ; (6) 180_178_176_124
 C   +0.00000000   +0.00000000   +0.00000000
 C   +0.00000000   +0.00000000   +1.49678661
 O   +1.23800673   +0.00000000   +1.98651242
 O   -0.97838899   +0.00193823   +2.19329069
 C   +1.33167028   +0.00498647   +3.40020311
 H   +2.38985927   +0.00597047   +3.62694778
 H   +0.85230951   +0.88915600   +3.80859229
 H   +0.85279222   -0.87663033   +3.81461145
 C   -1.40033245   -0.05201597   -0.58076297
 C   -1.39350524   +0.03464768   -2.06520174
 C   -1.95074576   -0.86962947   -2.88333948
 C   -1.87463825   -0.81715879   -4.37273332
 H   +0.53210339   +0.89278441   -0.32905081
 H   -0.95345748   +0.92545293   -2.50124065
 H   -2.32862813   -1.78807788   -2.44919761
 H   -1.16093027   -1.55305222   -4.74144680
 H   -2.83464847   -1.04137512   -4.83028676
 H   -1.55565129   +0.16326680   -4.71608571
 H   +0.60175524   -0.84203586   -0.33866856
 H   -1.98013985   +0.77134214   -0.16158338
 H   -1.89762193   -0.96458087   -0.25905027
 H   -3.83392430   -0.31085191   -2.68726410
22
 * E =  +0.754 kcal/mol ; (7) 180_209_075_265
 C   +0.00000000   +0.00000000   +0.00000000
 C   +0.00000000   +0.00000000   +1.49899925
 O   +1.22930895   +0.00000000   +2.00119214
 O   -0.98833780   -0.02869363   +2.18309428
 C   +1.30358335   -0.00300841   +3.41603567
 H   +2.35855082   -0.00358763   +3.65730137
 H   +0.81939719   +0.88306689   +3.81520521
 H   +0.81664640   -0.88492716   +3.82024409
 C   -1.23863670   +0.69406406   -0.55167364
 C   -1.16213572   +2.17874934   -0.43070159
 C   -1.69078743   +2.88829313   +0.57774565
 C   -1.71822177   +4.38030606   +0.62739114
 H   +0.92023631   +0.45381319   -0.35817411
 H   -0.58450418   +2.70262979   -1.18455241
 H   -2.28975748   +2.35950403   +1.31057216
 H   -2.70866353   +4.74381865   +0.35497923
 H   -1.50011405   +4.75493309   +1.62371296
 H   -0.99986624   +4.81158889   -0.06489125
 H   +0.01870982   -1.04534561   -0.31040973
 H   -2.10580755   +0.31787371   -0.01385407
 H   -1.35589060   +0.42078987   -1.59889200
 H   -0.19149681   +2.73115882   +1.86633175
22
 * E =  +0.870 kcal/mol ; (8) 182_216_070_005
 C   +0.00000000   +0.00000000   +0.00000000
 C   +0.00000000   +0.00000000   +1.49913435
 O   +1.23277661   +0.00000000   +2.00183612
 O   -0.98491964   -0.02356410   +2.18609408
 C   +1.31000154   -0.04809937   +3.41602251
 H   +2.36523235   -0.03860120   +3.65577813
 H   +0.80988187   +0.81157765   +3.85087453
 H   +0.84059906   -0.95258534   +3.79001338
 C   -1.13709369   +0.82590116   -0.56353618
 C   -1.00274501   +2.29639015   -0.36622322
 C   +0.05443795   +2.93457538   +0.15662017
 C   +0.09903735   +4.40750206   +0.39288106
 H   +0.96690866   +0.33315516   -0.36702862
 H   -1.82594002   +2.89477341   -0.73822887
 H   +0.85656827   +2.35918191   +0.60304772
 H   -0.01464839   +4.62405016   +1.45441220
 H   +1.04733470   +4.83361353   +0.07549639
 H   -0.69843014   +4.91650863   -0.14168832
 H   -0.11601650   -1.03918600   -0.30676439
 H   -2.07145952   +0.49133469   -0.11218257
 H   -1.22699356   +0.62355677   -1.63243838
 H   +1.23604295   +2.83900719   -1.42951821
22
 * E =  +1.050 kcal/mol ; (9) 181_133_288_001
 C   +0.00000000   +0.00000000   +0.00000000
 C   +0.00000000   +0.00000000   +1.49963542
 O   +1.22792811   +0.00000000   +2.01101313
 O   -0.99206721   +0.01644352   +2.17637720
 C   +1.28926744   -0.01377917   +3.42718129
 H   +2.34192064   -0.00871244   +3.67840749
 H   +0.79252587   +0.86042760   +3.83599169
 H   +0.80641694   -0.90756699   +3.81058115
 C   -0.95513657   -1.04109518   -0.55242240
 C   -0.51212692   -2.45681117   -0.40515252
 C   +0.61832805   -2.88875282   +0.17388266
 C   +1.04991184   -4.31897083   +0.17527188
 H   -0.33388463   +0.98997420   -0.30665192
 H   -1.20802539   -3.19988328   -0.77701761
 H   +1.35825145   -2.16668550   +0.49758230
 H   +1.83459130   -4.47648728   -0.56401033
 H   +1.45065648   -4.61683075   +1.14044607
 H   +0.22213366   -4.97998170   -0.06719783
 H   +1.01117642   -0.13442086   -0.37290362
 H   -1.13286326   -0.83913590   -1.60969658
 H   -1.91988311   -0.91645969   -0.05799034
 H   +0.07532300   -2.83024385   +2.07268482
22
 * E =  +1.075 kcal/mol ; (10) 180_050_064_010
 C   +0.00000000   +0.00000000   +0.00000000
 C   +0.00000000   +0.00000000   +1.49886116
 O   +1.23498367   +0.00000000   +1.99501729
 O   -0.98048373   +0.02028184   +2.19356370
 C   +1.32196605   +0.00883747   +3.40857886
 H   +2.37898073   +0.00866887   +3.64092209
 H   +0.84128050   +0.89443333   +3.81223903
 H   +0.83986032   -0.87163556   +3.82153710
 C   +0.89890603   -1.06093012   -0.60899623
 C   +0.49583420   -2.46800218   -0.32943936
 C   -0.65325305   -2.86530001   +0.23814279
 C   -0.97723147   -4.29148087   +0.53505630
 H   -1.03002558   -0.11272268   -0.32449585
 H   +1.17691285   -3.22946713   -0.69120194
 H   -1.31610832   -2.12829203   +0.67379928
 H   -0.90339403   -4.48063541   +1.60518423
 H   -1.99235557   -4.53838690   +0.23501041
 H   -0.29665382   -4.96691308   +0.02351456
 H   +0.34013463   +0.98395382   -0.32051405
 H   +1.92144062   -0.90533759   -0.26607105
 H   +0.92217150   -0.91481827   -1.69127403
 H   -1.81706700   -2.59897363   -1.33900561
22
 * E =  +1.139 kcal/mol ; (11) 181_057_064_237
 C   +0.00000000   +0.00000000   +0.00000000
 C   +0.00000000   +0.00000000   +1.49797683
 O   +1.23812599   +0.00000000   +1.98780385
 O   -0.97856659   +0.01400604   +2.19369570
 C   +1.32960496   -0.01706193   +3.40125065
 H   +2.38747065   -0.01835141   +3.63016362
 H   +0.84757177   +0.85990983   +3.82205394
 H   +0.85185523   -0.90859906   +3.79559891
 C   +0.77272232   -1.17443838   -0.59470365
 C   +0.16121169   -2.49127153   -0.26646050
 C   +0.79340062   -3.48990380   +0.36599882
 C   +0.21365970   -4.84870367   +0.57815582
 H   -1.03728528   -0.00976627   -0.32013285
 H   -0.88271642   -2.62193452   -0.53041345
 H   +1.84996489   -3.37250400   +0.57807980
 H   +0.64380810   -5.55579615   -0.13042218
 H   +0.42316701   -5.22316132   +1.57651451
 H   -0.86357203   -4.84255984   +0.43639850
 H   +0.44828987   +0.93494692   -0.33320697
 H   +1.80370098   -1.14426227   -0.24908224
 H   +0.79207875   -1.04376105   -1.67787296
 H   +0.57870375   -2.88166570   +2.24627228
22
 * E =  +1.215 kcal/mol ; (12) 181_314_299_117
 C   +0.00000000   +0.00000000   +0.00000000
 C   +0.00000000   +0.00000000   +1.49857812
 O   +1.23555506   +0.00000000   +1.99683798
 O   -0.98057111   -0.02068819   +2.19144535
 C   +1.31797704   -0.01675089   +3.41036837
 H   +2.37420047   -0.01190070   +3.64677785
 H   +0.82813346   +0.85766550   +3.82717470
 H   +0.84172903   -0.90776045   +3.80744771
 C   +0.97997679   +1.00063175   -0.60310998
 C   +0.66103324   +2.40197852   -0.21699019
 C   +1.47407786   +3.18693584   +0.50437107
 C   +1.11654900   +4.55302137   +0.98563244
 H   +0.25462883   -1.00827952   -0.32659675
 H   -0.27959845   +2.80843940   -0.57209224
 H   +2.37210072   +2.74246547   +0.91785419
 H   +0.88928919   +4.52989785   +2.05079582
 H   +1.93526588   +5.25382435   +0.84483113
 H   +0.24450091   +4.93843492   +0.46449783
 H   -1.01997427   +0.19832128   -0.31497454
 H   +0.94423684   +0.89833134   -1.68836653
 H   +1.99054822   +0.75225066   -0.28781123
 H   +2.71082907   +3.72162342   -0.94337688
22
 * E =  +1.311 kcal/mol ; (13) 181_314_182_245
 C   +0.00000000   +0.00000000   +0.00000000
 C   +0.00000000   +0.00000000   +1.49673975
 O   +1.23493755   +0.00000000   +1.99650006
 O   -0.98082112   -0.01461792   +2.19008791
 C   +1.31744262   -0.02944930   +3.41035332
 H   +2.37370923   -0.02625034   +3.64606264
 H   +0.82756717   +0.84047695   +3.83631633
 H   +0.84143978   -0.92450862   +3.79840760
 C   +0.96264321   +1.01045263   -0.61702168
 C   +0.88705345   +0.99284407   -2.10237773
 C   +1.89153493   +0.61535136   -2.90658109
 C   +1.84022813   +0.66224437   -4.39672106
 H   +0.27402233   -1.00189542   -0.33100791
 H   -0.07081771   +1.23938258   -2.54744808
 H   +2.86258768   +0.43315821   -2.46074722
 H   +2.42551720   +1.50259995   -4.76815164
 H   +2.25434780   -0.24011433   -4.83885744
 H   +0.82012263   +0.77869666   -4.75237357
 H   -1.02278882   +0.18008743   -0.31655755
 H   +1.97593427   +0.79278134   -0.28893203
 H   +0.71422344   +2.00670991   -0.24674389
 H   +1.69922214   -1.33897877   -2.67453738
22
 * E =  +1.382 kcal/mol ; (14) 182_330_297_246
 C   +0.00000000   +0.00000000   +0.00000000
 C   +0.00000000   +0.00000000   +1.49928825
 O   +1.23071385   +0.00000000   +2.01148346
 O   -0.98615778   -0.03226507   +2.18340464
 C   +1.29815988   -0.05086868   +3.42574827
 H   +2.35166057   -0.03715911   +3.67332056
 H   +0.79099489   +0.80503825   +3.85984650
 H   +0.83006114   -0.95829891   +3.79411169
 C   +1.19504151   +0.68237282   -0.65370296
 C   +1.26476225   +2.13422100   -0.33491315
 C   +1.11407148   +3.11479786   -1.23716533
 C   +1.25022282   +4.56850784   -0.93088891
 H   -0.03982081   -1.04717282   -0.30247218
 H   +1.38288883   +2.39808576   +0.71007740
 H   +1.07004360   +2.84367544   -2.28586341
 H   +2.19912092   +4.94727118   -1.30897995
 H   +0.46055549   +5.15055996   -1.39879965
 H   +1.21737129   +4.74959777   +0.13997111
 H   -0.93465596   +0.45556363   -0.31378665
 H   +1.12367937   +0.54802222   -1.73148430
 H   +2.10694660   +0.18608217   -0.32354241
 H   -0.85370952   +3.03984929   -1.40971086
22
 * E =  +1.387 kcal/mol ; (15) 179_050_182_245
 C   +0.00000000   +0.00000000   +0.00000000
 C   +0.00000000   +0.00000000   +1.49684415
 O   +1.23667785   +0.00000000   +1.99451618
 O   -0.97901116   +0.01163837   +2.19216017
 C   +1.32180164   +0.01996470   +3.40833292
 H   +2.37848053   +0.01353183   +3.64225143
 H   +0.84802942   +0.91315422   +3.80345804
 H   +0.83132272   -0.85198090   +3.82941057
 C   +0.89179970   -1.07912590   -0.60883585
 C   +0.89771705   -1.00384015   -2.09391006
 C   +0.40461109   -1.95035336   -2.90571353
 C   +0.48258859   -1.90600721   -4.39491891
 H   -1.02842080   -0.11454107   -0.32622806
 H   +1.27108819   -0.08497366   -2.53331748
 H   +0.09170300   -2.88990165   -2.46496806
 H   +1.24934907   -2.59183325   -4.75331805
 H   -0.45694777   -2.20388060   -4.85282647
 H   +0.73175752   -0.90856685   -4.74673072
 H   +0.34465424   +0.98204861   -0.32565220
 H   +0.54603324   -2.06204021   -0.29170672
 H   +1.90214467   -0.95412279   -0.22077872
 H   -1.51107357   -1.51031270   -2.71514284
22
 * E =  +1.519 kcal/mol ; (16) 178_034_061_121
 C   +0.00000000   +0.00000000   +0.00000000
 C   +0.00000000   +0.00000000   +1.49918597
 O   +1.23176524   +0.00000000   +2.00727913
 O   -0.98499982   +0.02966058   +2.18537273
 C   +1.30406719   +0.04929510   +3.42143552
 H   +2.35842772   +0.03912751   +3.66519701
 H   +0.83366973   +0.95443583   +3.79247889
 H   +0.80174580   -0.80920614   +3.85606761
 C   +1.14885020   -0.76327623   -0.64636773
 C   +1.16095666   -2.20734679   -0.28811055
 C   +1.08131999   -3.20957789   -1.17498234
 C   +1.01114812   -4.65416839   -0.80861154
 H   -0.96382359   -0.39009502   -0.31236984
 H   +1.29972112   -2.44667711   +0.76035010
 H   +0.87919492   -2.96273327   -2.21103705
 H   -0.00337787   -5.02830961   -0.94069765
 H   +1.66230290   -5.25778084   -1.43551331
 H   +1.29559294   -4.81120540   +0.22822579
 H   +0.03587919   +1.04635772   -0.30582925
 H   +2.08905995   -0.30543409   -0.33884820
 H   +1.07604596   -0.65470928   -1.72691500
 H   +2.95231000   -3.17116326   -1.81301003
22
 * E =  +1.565 kcal/mol ; (17) 181_308_177_122
 C   +0.00000000   +0.00000000   +0.00000000
 C   +0.00000000   +0.00000000   +1.49711077
 O   +1.23591409   +0.00000000   +1.99454364
 O   -0.98000131   -0.00992908   +2.19141786
 C   +1.32179306   -0.01562267   +3.40852745
 H   +2.37857934   -0.00990843   +3.64170989
 H   +0.83282292   +0.85847042   +3.82683677
 H   +0.84677539   -0.90688832   +3.80646163
 C   +0.86885080   +1.09765675   -0.60643940
 C   +0.89276788   +1.02831267   -2.09146418
 C   +0.52505969   +2.02768384   -2.90588105
 C   +0.47648856   +1.92658014   -4.39367357
 H   +0.36475225   -0.97420178   -0.32716873
 H   +1.28767222   +0.11801498   -2.52992796
 H   +0.06625477   +2.90497829   -2.46461978
 H   -0.55522934   +1.84107743   -4.73274023
 H   +0.90019785   +2.80776592   -4.86818492
 H   +1.02101383   +1.05521219   -4.74715373
 H   -1.03168976   +0.09205372   -0.32261696
 H   +1.88082232   +0.99457849   -0.21451792
 H   +0.50403924   +2.07399098   -0.29025600
 H   +2.15652291   +3.13116267   -2.75537696
22
 * E =  +1.605 kcal/mol ; (18) 179_046_177_123
 C   +0.00000000   +0.00000000   +0.00000000
 C   +0.00000000   +0.00000000   +1.49734873
 O   +1.23499615   +0.00000000   +1.99626019
 O   -0.98085287   +0.01586788   +2.19042902
 C   +1.31891838   +0.02482329   +3.41027118
 H   +2.37534038   +0.01448036   +3.64494352
 H   +0.84872721   +0.92160020   +3.80147949
 H   +0.82417326   -0.84348633   +3.83374824
 C   +0.96414036   -1.00728448   -0.61639624
 C   +0.88122839   -1.01715621   -2.10132131
 C   +1.92096997   -0.80108668   -2.91978173
 C   +1.82124559   -0.73139945   -4.40687632
 H   -1.02256882   -0.18285904   -0.31596707
 H   -0.07972284   -1.26967330   -2.53636445
 H   +2.85981787   -0.48290157   -2.48136754
 H   +1.89101046   +0.30274291   -4.74220045
 H   +2.62605369   -1.28137949   -4.88750651
 H   +0.87593821   -1.13653772   -4.75751251
 H   +0.26756154   +1.00463598   -0.32754031
 H   +0.72539111   -2.00227067   -0.23448481
 H   +1.97925471   -0.78424064   -0.29763091
 H   +2.76468307   -2.58157411   -2.78139115
22
 * E =  +1.767 kcal/mol ; (19) 182_320_180_006
 C   +0.00000000   +0.00000000   +0.00000000
 C   +0.00000000   +0.00000000   +1.49732337
 O   +1.23174514   +0.00000000   +2.00501720
 O   -0.98438003   -0.02562246   +2.18476512
 C   +1.30391437   -0.03884961   +3.41942985
 H   +2.35831919   -0.02716916   +3.66308239
 H   +0.80208301   +0.82315596   +3.84737202
 H   +0.83348796   -0.94115899   +3.79735961
 C   +1.06027633   +0.88597073   -0.62286884
 C   +1.06449356   +0.89283053   -2.11185140
 C   +0.17509825   +0.28939103   -2.91415063
 C   +0.27515032   +0.27811527   -4.40330156
 H   +0.15026088   -1.03402019   -0.31516673
 H   +1.83192301   +1.50422006   -2.57190194
 H   -0.55811773   -0.37966189   -2.48202617
 H   +0.60736244   -0.69837513   -4.75367032
 H   -0.68642030   +0.47809843   -4.86886288
 H   +0.98463089   +1.02185148   -4.75591435
 H   -0.99839475   +0.29027015   -0.31352127
 H   +2.04308067   +0.58685816   -0.26001028
 H   +0.92491594   +1.91263027   -0.27320519
 H   -1.29595188   +1.59108588   -2.72246492
22
 * E =  +7.729 kcal/mol ; (20) 357_173_291_250
 C   +0.00000000   +0.00000000   +0.00000000
 C   +0.00000000   +0.00000000   +1.50463406
 O   +1.18268994   +0.00000000   +2.12891128
 O   -1.00076621   +0.02132953   +2.16139940
 C   +2.39174048   -0.05610650   +1.40664396
 H   +3.17896561   +0.03348166   +2.14466567
 H   +2.49993269   -1.00467695   +0.88595373
 H   +2.47652103   +0.76338323   +0.69704365
 C   -1.39948561   -0.16549223   -0.57296314
 C   -1.95067471   -1.52474330   -0.31957548
 C   -2.14701903   -2.44241713   -1.27774087
 C   -2.74713737   -3.78755397   -1.04299294
 H   +0.43913931   +0.94228089   -0.33217485
 H   -2.13306696   -1.78566332   +0.71517513
 H   -2.02837517   -2.14023599   -2.31235662
 H   -3.76930223   -3.81615614   -1.41863451
 H   -2.19222026   -4.56749071   -1.55830492
 H   -2.77049732   -4.02774859   +0.01626174
 H   +0.65192196   -0.78984667   -0.37123865
 H   -1.36148109   +0.02231172   -1.64440418
 H   -2.04783298   +0.58562814   -0.12401621
 H   -0.24530504   -2.98404249   -1.48904730
22
 * E =  +8.063 kcal/mol ; (21) 002_183_182_247
 C   +0.00000000   +0.00000000   +0.00000000
 C   +0.00000000   +0.00000000   +1.50360350
 O   +1.18457160   +0.00000000   +2.12738398
 O   -1.00042183   -0.00705382   +2.15957308
 C   +2.39218303   +0.03310147   +1.40226665
 H   +3.18094029   -0.01924148   +2.14222274
 H   +2.48155877   -0.81608537   +0.72891444
 H   +2.49512839   +0.95796708   +0.83946972
 C   -1.40898938   +0.07204004   -0.56213113
 C   -1.40511006   +0.01268908   -2.04798006
 C   -1.76000984   +1.02857171   -2.84824476
 C   -1.82246737   +0.94786530   -4.33626181
 H   +0.59523046   +0.83571194   -0.36788166
 H   -1.02650153   -0.89664986   -2.50300008
 H   -2.19916557   +1.90831900   -2.39208410
 H   -2.85859681   +0.89060934   -4.66755963
 H   -1.38293919   +1.82594339   -4.80223891
 H   -1.30155910   +0.06874896   -4.70589961
 H   +0.50684275   -0.90166217   -0.34824592
 H   -1.88559791   +0.98750304   -0.21944115
 H   -1.99079314   -0.74905170   -0.14500860
 H   -0.08899097   +2.07986410   -2.67966629
22
 * E =  +8.356 kcal/mol ; (22) 002_186_068_119
 C   +0.00000000   +0.00000000   +0.00000000
 C   +0.00000000   +0.00000000   +1.50487591
 O   +1.18373828   +0.00000000   +2.12898585
 O   -0.99977802   -0.02051369   +2.16226509
 C   +2.39308161   +0.04328376   +1.40733880
 H   +3.17951095   -0.04913420   +2.14589446
 H   +2.47218253   -0.77970961   +0.70116918
 H   +2.50992404   +0.98881200   +0.88267149
 C   -1.39929376   +0.14121426   -0.57680216
 C   -2.00607387   +1.47587314   -0.31901537
 C   -2.37883052   +2.32756102   -1.28588760
 C   -2.91943883   +3.69599820   -1.03646138
 H   +0.64640675   +0.79611650   -0.36736332
 H   -2.20406859   +1.72354319   +0.71597429
 H   -2.11809957   +2.09027129   -2.31138627
 H   -2.16586780   +4.44914211   -1.26441167
 H   -3.78326975   +3.90460915   -1.66238543
 H   -3.21441413   +3.81741352   +0.00205506
 H   +0.45212707   -0.93636856   -0.33159412
 H   -2.03008433   -0.63204417   -0.13868420
 H   -1.35498177   -0.03916605   -1.64941592
 H   -4.06466905   +1.44450099   -1.80270114
22
 * E =  +8.485 kcal/mol ; (23) 358_178_181_003
 C   +0.00000000   +0.00000000   +0.00000000
 C   +0.00000000   +0.00000000   +1.50346204
 O   +1.18556593   +0.00000000   +2.12519391
 O   -0.99881666   +0.00764795   +2.16178647
 C   +2.39280721   -0.03795346   +1.40016070
 H   +3.18175017   +0.01042097   +2.14020325
 H   +2.49218071   -0.96314529   +0.83711877
 H   +2.48616875   +0.81158189   +0.72769048
 C   -1.40391396   -0.05821944   -0.55306801
 C   -1.48813432   -0.07587673   -2.03830900
 C   -0.45890773   -0.10424912   -2.89844401
 C   -0.61486814   -0.06397686   -4.38214193
 H   +0.51704496   +0.89588840   -0.34772586
 H   -2.49051685   -0.13666336   -2.44527082
 H   +0.54785355   +0.03154625   -2.52376900
 H   -0.34116980   +0.91767161   -4.76696525
 H   +0.02683572   -0.79288456   -4.87049161
 H   -1.64156670   -0.26606785   -4.67484613
 H   +0.58744717   -0.84515156   -0.36089331
 H   -1.98228993   +0.77776648   -0.15979295
 H   -1.90275517   -0.94384449   -0.15664409
 H   +0.02420276   -2.00743547   -2.67823193
22
 * E =  +9.182 kcal/mol ; (24) 001_191_074_359
 C   +0.00000000   +0.00000000   +0.00000000
 C   +0.00000000   +0.00000000   +1.50628152
 O   +1.18541890   +0.00000000   +2.12970844
 O   -0.99861134   -0.02856338   +2.16335658
 C   +2.39485253   +0.02919919   +1.40670120
 H   +3.18003839   -0.08845660   +2.14309214
 H   +2.45681992   -0.78576614   +0.68962112
 H   +2.53026408   +0.97893030   +0.89399098
 C   -1.37303196   +0.26367618   -0.57663921
 C   -1.84930587   +1.67112475   -0.46776764
 C   -1.19832807   +2.69274188   +0.10334551
 C   -1.76316856   +4.06606226   +0.24112690
 H   +0.71879197   +0.72256899   -0.38394725
 H   -2.79998553   +1.87683693   -0.94493822
 H   -0.29312901   +2.49918963   +0.66523335
 H   -2.05722188   +4.24889958   +1.27374732
 H   -1.03466622   +4.82671267   -0.02817584
 H   -2.63946838   +4.19634025   -0.38804217
 H   +0.35622381   -0.97995325   -0.32121711
 H   -2.09634200   -0.39127730   -0.09051022
 H   -1.36703082   -0.01630976   -1.63135972
 H   +0.12084343   +3.01769511   -1.36627778
22
 * E =  +9.184 kcal/mol ; (25) 007_194_082_279
 C   +0.00000000   +0.00000000   +0.00000000
 C   +0.00000000   +0.00000000   +1.50821852
 O   +1.17899893   +0.00000000   +2.13660302
 O   -1.00166853   -0.05944274   +2.16190883
 C   +2.38763742   +0.14898143   +1.42833441
 H   +3.17438152   +0.02962138   +2.16282675
 H   +2.50282417   -0.61100798   +0.65904609
 H   +2.46313028   +1.13955847   +0.98522892
 C   -1.37172589   +0.35317416   -0.56205340
 C   -1.60656746   +1.82913483   -0.58889872
 C   -1.98801487   +2.55752789   +0.47120770
 C   -2.28389820   +4.01851479   +0.41693084
 H   +0.75630421   +0.68181969   -0.38257067
 H   -1.37245030   +2.34772328   -1.51199072
 H   -2.25221385   +2.03377470   +1.38225011
 H   -3.36032032   +4.18258448   +0.45442747
 H   -1.84988496   +4.54620946   +1.26209375
 H   -1.90603596   +4.46647437   -0.49852563
 H   +0.29953544   -1.00301149   -0.31145999
 H   -2.12443869   -0.14106792   +0.04701201
 H   -1.44960500   -0.04346130   -1.57155840
 H   -0.15300220   +2.73989704   +1.24436329
22
 * E = +10.415 kcal/mol ; (26) 006_090_180_248
 C   +0.00000000   +0.00000000   +0.00000000
 C   +0.00000000   +0.00000000   +1.50362142
 O   +1.17360023   +0.00000000   +2.15097770
 O   -1.00921703   -0.05604492   +2.14367511
 C   +2.39686175   +0.13459542   +1.46582951
 H   +3.16864242   +0.00991100   +2.21537804
 H   +2.52146512   -0.62861706   +0.70126099
 H   +2.49446491   +1.12176328   +1.01965340
 C   +0.00040435   -1.43782568   -0.53110928
 C   -0.00508400   -1.47146905   -2.01794787
 C   -1.03223054   -1.91065326   -2.75975415
 C   -1.01072295   -2.01586213   -4.24763992
 H   -0.91524792   +0.49160023   -0.31308159
 H   +0.85711128   -1.04758496   -2.52141046
 H   -1.86191743   -2.38852846   -2.25185142
 H   -0.89097827   -3.05578379   -4.54898387
 H   -1.93790944   -1.65731862   -4.68649251
 H   -0.18926752   -1.44503338   -4.67194823
 H   +0.83856891   +0.55381254   -0.41424525
 H   -0.87353875   -1.95382908   -0.13924784
 H   +0.87633041   -1.96837052   -0.15216328
 H   -2.18337624   -0.31339289   -2.61967755
22
 * E = +10.722 kcal/mol ; (27) 352_273_293_240
 C   +0.00000000   +0.00000000   +0.00000000
 C   +0.00000000   +0.00000000   +1.50309260
 O   +1.17618535   +0.00000000   +2.14634179
 O   -1.00568509   +0.05957932   +2.14973632
 C   +2.39662345   -0.16765793   +1.46265894
 H   +3.17065990   -0.04714940   +2.21057489
 H   +2.47476460   -1.16325606   +1.03159290
 H   +2.53611060   +0.58068673   +0.68644868
 C   +0.06346777   +1.43423844   -0.54612775
 C   -1.16803980   +2.21284069   -0.24167173
 C   -1.95638556   +2.75020332   -1.18376511
 C   -3.16115287   +3.58054597   -0.89499049
 H   +0.82224337   -0.58491305   -0.40227924
 H   -1.47111866   +2.26950790   +0.79638915
 H   -1.61422591   +2.73518225   -2.21251957
 H   -2.94932573   +4.63263825   -1.08211411
 H   -3.99782869   +3.30143416   -1.53015697
 H   -3.47007415   +3.47637235   +0.14116614
 H   -0.93172714   -0.45976444   -0.31365455
 H   +0.20790935   +1.38718840   -1.62391294
 H   +0.93761765   +1.94289862   -0.13356998
 H   -2.85620194   +1.08319137   -1.74719650
22
 * E = +10.743 kcal/mol ; (28) 354_270_181_006
 C   +0.00000000   +0.00000000   +0.00000000
 C   +0.00000000   +0.00000000   +1.50366181
 O   +1.17435072   +0.00000000   +2.14863609
 O   -1.00880112   +0.05072820   +2.14455106
 C   +2.39762483   -0.11970529   +1.45988663
 H   +3.16973889   +0.01806460   +2.20675410
 H   +2.50704669   -1.10708561   +1.01697278
 H   +2.50899206   +0.64171351   +0.69163934
 C   -0.00769091   +1.43138418   -0.52000393
 C   -0.03801484   +1.55369717   -2.00386323
 C   -0.16962395   +0.54689867   -2.88002804
 C   -0.13269659   +0.72597554   -4.36146850
 H   +0.84386614   -0.54822408   -0.41109205
 H   -0.02301477   +2.56710304   -2.38698269
 H   -0.11833858   -0.47393599   -2.52287110
 H   +0.82168841   +0.38479557   -4.76064872
 H   -0.91248952   +0.14950669   -4.85196890
 H   -0.25883545   +1.76985425   -4.63522106
 H   -0.91302125   -0.50099095   -0.30761751
 H   +0.85626297   +1.97972506   -0.13765209
 H   -0.87814297   +1.94255739   -0.10407231
 H   -2.10005255   +0.23892396   -2.67246661
22
 * E = +10.837 kcal/mol ; (29) 008_087_064_129
 C   +0.00000000   +0.00000000   +0.00000000
 C   +0.00000000   +0.00000000   +1.50370474
 O   +1.17478659   +0.00000000   +2.14795602
 O   -1.00724310   -0.05696517   +2.14823808
 C   +2.39601758   +0.17234760   +1.46626497
 H   +3.16923059   +0.05062493   +2.21475437
 H   +2.53789219   -0.57283326   +0.68769393
 H   +2.47231876   +1.16985445   +1.03931962
 C   +0.07689121   -1.42947529   -0.55155038
 C   -1.10495745   -2.26211544   -0.19781759
 C   -1.82023708   -2.95628718   -1.09411337
 C   -3.04547841   -3.73994502   -0.76282604
 H   -0.93476735   +0.45671251   -0.30798231
 H   -1.35660832   -2.33933035   +0.85263469
 H   -1.61147994   -2.80715577   -2.14755473
 H   -3.93417966   -3.21217755   -1.10667573
 H   -3.04000545   -4.71340175   -1.24630372
 H   -3.13742120   -3.89083789   +0.30892542
 H   +0.81747946   +0.59246573   -0.40145073
 H   +0.98303344   -1.91403625   -0.17907929
 H   +0.17812171   -1.37828044   -1.63402318
 H   -0.56312307   -4.46640801   -1.33870300
22
 * E = +10.906 kcal/mol ; (30) 349_276_301_126
 C   +0.00000000   +0.00000000   +0.00000000
 C   +0.00000000   +0.00000000   +1.50425426
 O   +1.17579486   +0.00000000   +2.14830425
 O   -1.00781753   +0.05235833   +2.14633143
 C   +2.39020235   -0.22168915   +1.46962249
 H   +3.16846435   -0.10395844   +2.21354539
 H   +2.43796577   -1.23100993   +1.06667017
 H   +2.55233924   +0.49933509   +0.67267071
 C   +0.14479790   +1.42007598   -0.56014222
 C   -0.93904176   +2.33405811   -0.11091271
 C   -0.72841454   +3.51415156   +0.48692531
 C   -1.81120498   +4.39020962   +1.01896474
 H   +0.77878911   -0.63922457   -0.40766874
 H   -1.95630544   +2.02552706   -0.32076288
 H   +0.28588315   +3.77272566   +0.76870641
 H   -1.85563792   +4.30832337   +2.10405453
 H   -1.63621753   +5.43519599   +0.77698835
 H   -2.78053302   +4.10402234   +0.62075171
 H   -0.95981911   -0.40970302   -0.29881232
 H   +0.13314937   +1.34197940   -1.64870102
 H   +1.11104037   +1.84478099   -0.29074389
 H   -0.27214409   +4.57187315   -1.13253322
22
 * E = +12.312 kcal/mol ; (31) 345_284_283_016
 C   +0.00000000   +0.00000000   +0.00000000
 C   +0.00000000   +0.00000000   +1.50620193
 O   +1.18145888   +0.00000000   +2.13880230
 O   -1.00021464   +0.01376898   +2.16320202
 C   +2.38371720   -0.30649342   +1.47129442
 H   +3.16746553   -0.18586654   +2.20892804
 H   +2.38483164   -1.33681676   +1.12158728
 H   +2.57831114   +0.36246814   +0.63780626
 C   +0.34396054   +1.34635864   -0.63755729
 C   -0.73813168   +2.37282411   -0.64668193
 C   -1.86374810   +2.36165084   +0.08239533
 C   -2.93664483   +3.39102554   -0.05284744
 H   +0.70099277   -0.75065620   -0.35873956
 H   -0.53489397   +3.24102603   -1.26296914
 H   -2.10579008   +1.48853192   +0.67462106
 H   -3.78268776   +2.98098831   -0.60325592
 H   -3.30767785   +3.70709961   +0.91830984
 H   -2.58058503   +4.26878029   -0.58592830
 H   -0.99376019   -0.30942282   -0.30856400
 H   +0.64505112   +1.16011413   -1.66885811
 H   +1.22443679   +1.78055157   -0.15709174
 H   -1.09633777   +3.00714434   +1.76528509
