22
 * E =  +0.000 kcal/mol ; (1) 178_145_074_243
 C   +0.00000000   +0.00000000   +0.00000000
 O   +0.00000000   +0.00000000   +1.41773710
 C   +1.20050123   +0.00000000   +1.98768152
 C   +1.09530461   +0.06011693   +3.48862286
 C   +2.14927820   -0.70777780   +4.18425935
 C   +3.43133020   -0.50432347   +4.39117938
 C   +4.21876365   +0.67314416   +3.90758306
 C   +5.31329868   +0.25386788   +2.94058075
 O   +2.22565986   -0.00867182   +1.36512585
 H   +4.87649333   -0.20326238   +2.05761243
 H   +0.50491146   +0.88346772   -0.37786782
 H   +5.98901333   -0.46465685   +3.40090427
 H   +5.90302281   +1.11239730   +2.62755856
 H   +4.66218956   +1.17532833   +4.76914412
 H   +3.55829313   +1.38649585   +3.41946713
 H   +3.98611135   -1.25788186   +4.94066360
 H   +1.66779990   -1.92987966   +4.73222947
 H   +1.16221467   +1.11817864   +3.75510251
 H   +0.10294952   -0.26860969   +3.78532063
 H   +0.50636872   -0.88306705   -0.37623589
 H   -1.04090200   -0.00112776   -0.29550540
 H   +1.38110365   -2.67329130   +5.07599918
22
 * E =  +0.340 kcal/mol ; (2) 182_068_272_115
 C   +0.00000000   +0.00000000   +0.00000000
 O   +0.00000000   +0.00000000   +1.41719735
 C   +1.20378950   +0.00000000   +1.98392478
 C   +1.10378793   -0.03935467   +3.48437994
 C   +0.56771139   -1.33175789   +3.97298246
 C   -0.64838196   -1.78479210   +4.18887909
 C   -1.92182206   -1.03554813   +3.94875632
 C   -2.75576078   -1.68658995   +2.85764472
 O   +2.22606643   +0.02911671   +1.35790346
 H   -2.99421467   -2.71845360   +3.10757239
 H   +0.49942454   +0.88617980   -0.37869804
 H   -2.21202948   -1.68574550   +1.91667644
 H   -3.69255830   -1.15348691   +2.71299930
 H   -1.70472168   -0.00571959   +3.67476037
 H   -2.49387429   -1.00928114   +4.87729890
 H   -0.75406821   -2.80140380   +4.55358867
 H   +1.58635531   -2.28164088   +4.27017002
 H   +2.09873880   +0.14157638   +3.87914095
 H   +0.45391298   +0.77633986   +3.80458959
 H   +0.51126759   -0.88031274   -0.37649977
 H   -1.04089977   -0.00687498   -0.29651552
 H   +2.18951784   -2.87035732   +4.47417810
22
 * E =  +0.427 kcal/mol ; (3) 177_148_072_130
 C   +0.00000000   +0.00000000   +0.00000000
 O   +0.00000000   +0.00000000   +1.41764971
 C   +1.20202519   +0.00000000   +1.98599354
 C   +1.09707125   +0.06720880   +3.48686983
 C   +2.18326756   -0.64879619   +4.18687395
 C   +3.46274345   -0.40106720   +4.35834048
 C   +4.19638557   +0.79539221   +3.83864954
 C   +5.02358287   +1.47538952   +4.91492447
 O   +2.22604002   -0.01173721   +1.36245751
 H   +5.74501746   +0.78557747   +5.34887186
 H   +0.50088841   +0.88579653   -0.37786499
 H   +4.39351429   +1.84352412   +5.72151413
 H   +5.57591399   +2.31875020   +4.50751995
 H   +3.49484911   +1.49606672   +3.39031905
 H   +4.84359989   +0.46756604   +3.02446215
 H   +4.05331794   -1.11895890   +4.91841645
 H   +1.75072748   -1.87168414   +4.77611094
 H   +1.12068921   +1.12987740   +3.74390868
 H   +0.11872250   -0.29773547   +3.78804457
 H   +0.51063411   -0.88052704   -0.37642895
 H   -1.04085616   -0.00572334   -0.29574009
 H   +1.49454082   -2.61373789   +5.14392922
22
 * E =  +0.476 kcal/mol ; (4) 181_066_273_233
 C   +0.00000000   +0.00000000   +0.00000000
 O   +0.00000000   +0.00000000   +1.41699649
 C   +1.20197076   +0.00000000   +1.98570312
 C   +1.09825907   -0.03342603   +3.48646169
 C   +0.52565476   -1.30671897   +3.98230302
 C   -0.70375472   -1.72627773   +4.19001839
 C   -1.95468902   -0.93901528   +3.95448395
 C   -2.85237160   -0.90996452   +5.17920678
 O   +2.22625262   +0.02691995   +1.36261498
 H   -2.35496702   -0.42760717   +6.01734564
 H   +0.50591464   +0.88251499   -0.37878083
 H   -3.12249835   -1.91698412   +5.49106533
 H   -3.77259764   -0.36766281   +4.97578494
 H   -2.49134505   -1.39345878   +3.11998919
 H   -1.70703709   +0.07074212   +3.63454049
 H   -0.83965570   -2.73403675   +4.56958432
 H   +1.51663960   -2.28033654   +4.29728551
 H   +2.09662853   +0.12427482   +3.88246735
 H   +0.46880806   +0.80084352   +3.80104368
 H   +0.50494498   -0.88400895   -0.37636701
 H   -1.04073019   -0.00013860   -0.29654518
 H   +2.10233535   -2.88214533   +4.51294883
22
 * E =  +0.542 kcal/mol ; (5) 179_169_119_240
 C   +0.00000000   +0.00000000   +0.00000000
 O   +0.00000000   +0.00000000   +1.41716061
 C   +1.20426177   +0.00000000   +1.98490549
 C   +1.08398879   +0.03050964   +3.48398291
 C   +2.36010308   -0.21864900   +4.17455851
 C   +3.10813526   +0.47619997   +5.00204192
 C   +2.85660648   +1.87374156   +5.47849494
 C   +3.99416596   +2.81010436   +5.10619913
 O   +2.22684178   -0.00836070   +1.36122794
 H   +4.10869486   +2.87091107   +4.02693812
 H   +0.50522434   +0.88309076   -0.37842828
 H   +4.93799295   +2.46024811   +5.51940860
 H   +3.81529990   +3.81264561   +5.48762875
 H   +2.74260065   +1.85757153   +6.56340796
 H   +1.91884781   +2.25026986   +5.07465201
 H   +4.01740037   +0.01241410   +5.37116640
 H   +2.88503939   -1.51789336   +3.89573480
 H   +0.67067608   +1.00511385   +3.75404768
 H   +0.32935443   -0.70054633   +3.77260121
 H   +0.50586168   -0.88301190   -0.37736749
 H   -1.04083982   -0.00045151   -0.29609225
 H   +3.21528867   -2.30626828   +3.75858607
22
 * E =  +0.583 kcal/mol ; (6) 181_188_242_238
 C   +0.00000000   +0.00000000   +0.00000000
 O   +0.00000000   +0.00000000   +1.41714142
 C   +1.20425049   +0.00000000   +1.98524238
 C   +1.08206727   -0.01949101   +3.48437787
 C   +2.36897289   +0.16332745   +4.17549401
 C   +3.08374380   -0.57355505   +4.99604121
 C   +2.75277249   -1.95080914   +5.48250638
 C   +2.67133421   -2.01746466   +6.99827168
 O   +2.22702269   +0.00577293   +1.36209417
 H   +1.87938096   -1.37455645   +7.37489509
 H   +0.50531912   +0.88326262   -0.37756944
 H   +3.60466867   -1.69267604   +7.45368740
 H   +2.47294362   -3.03225632   +7.33489640
 H   +3.52777596   -2.63420008   +5.13272879
 H   +1.81845005   -2.29511407   +5.04358113
 H   +4.01209833   -0.15501357   +5.37171547
 H   +2.95660001   +1.43766475   +3.90573017
 H   +0.37010258   +0.75587016   +3.76690541
 H   +0.61293749   -0.96673795   +3.75966876
 H   +0.50549593   -0.88288985   -0.37847400
 H   -1.04086354   -0.00001197   -0.29603732
 H   +3.32424424   +2.21040860   +3.77693474
22
 * E =  +1.889 kcal/mol ; (7) 177_286_271_353
 C   +0.00000000   +0.00000000   +0.00000000
 O   +0.00000000   +0.00000000   +1.41723774
 C   +1.19740853   +0.00000000   +1.98790386
 C   +1.09783874   +0.06617735   +3.48708133
 C   +0.71827649   +1.43099169   +3.92623902
 C   +1.32572164   +2.55363881   +4.24989162
 C   +2.78478155   +2.89536494   +4.30576177
 C   +3.77444871   +1.76974719   +4.09863417
 O   +2.22561035   -0.03012728   +1.36806751
 H   +3.64475393   +1.28767068   +3.13282593
 H   -1.04088098   +0.00806826   -0.29524178
 H   +3.67954913   +1.01392764   +4.87557581
 H   +4.79013476   +2.15461575   +4.14376812
 H   +2.96886140   +3.37251681   +5.26972584
 H   +2.95814883   +3.67778257   +3.56389367
 H   +0.67170424   +3.38096592   +4.50929858
 H   -0.67342997   +1.56925714   +3.99128319
 H   +0.33823718   -0.64134800   +3.81608794
 H   +2.05475278   -0.24016331   +3.89607760
 H   +0.51162130   +0.88020676   -0.37631333
 H   +0.49894277   -0.88671886   -0.37796676
 H   -1.54189877   +1.67553832   +4.06336357
22
 * E =  +1.935 kcal/mol ; (8) 178_149_082_009
 C   +0.00000000   +0.00000000   +0.00000000
 O   +0.00000000   +0.00000000   +1.41759773
 C   +1.20234194   +0.00000000   +1.98557179
 C   +1.09382943   +0.06063021   +3.48645275
 C   +2.19997315   -0.62568634   +4.18308593
 C   +3.44104353   -0.37817583   +4.54113061
 C   +4.27829493   +0.85101451   +4.35653244
 C   +3.58160262   +2.08896786   +3.83716306
 O   +2.22546707   -0.00944030   +1.36035102
 H   +2.79227041   +2.41207988   +4.51305803
 H   +0.50504028   +0.88324086   -0.37827150
 H   +3.15445978   +1.91369463   +2.85363028
 H   +4.28974589   +2.90905984   +3.74897412
 H   +5.09532930   +0.58245800   +3.68429771
 H   +4.75222990   +1.07069789   +5.31452846
 H   +3.96073957   -1.19396186   +5.03459560
 H   +1.82377902   -1.92286663   +4.53100779
 H   +1.05386836   +1.11843466   +3.74959352
 H   +0.13440891   -0.36056617   +3.77822242
 H   +0.50613287   -0.88311837   -0.37644880
 H   -1.04088952   -0.00088671   -0.29566400
 H   +1.59358827   -2.74061926   +4.76692759
22
 * E =  +2.315 kcal/mol ; (9) 181_063_261_354
 C   +0.00000000   +0.00000000   +0.00000000
 O   +0.00000000   +0.00000000   +1.41719366
 C   +1.20228146   +0.00000000   +1.98421842
 C   +1.10920152   -0.01957761   +3.48677218
 C   +0.46246866   -1.24788940   +4.00018873
 C   -0.71928514   -1.63963094   +4.42704115
 C   -2.01181941   -0.89318955   +4.56438034
 C   -1.99258212   +0.59421276   +4.29061908
 O   +2.22495075   +0.02615136   +1.35807962
 H   -1.66641434   +0.80529500   +3.27556014
 H   -1.04077273   -0.00606473   -0.29637477
 H   -1.33500149   +1.11582791   +4.98298862
 H   -2.98929699   +1.01045519   +4.41403991
 H   -2.38615652   -1.07493087   +5.57321105
 H   -2.73230887   -1.37733719   +3.90197115
 H   -0.78645976   -2.68278724   +4.72197334
 H   +1.37721647   -2.30136489   +4.03759671
 H   +2.12546061   +0.05606061   +3.86297483
 H   +0.56610987   +0.87002512   +3.80083665
 H   +0.50120294   +0.88516239   -0.37883093
 H   +0.50967339   -0.88133415   -0.37608144
 H   +1.93532422   -2.98232611   +4.09286560
22
 * E =  +7.530 kcal/mol ; (10) 358_283_294_111
 C   +0.00000000   +0.00000000   +0.00000000
 O   +0.00000000   +0.00000000   +1.41161890
 C   +1.13677147   +0.00000000   +2.10717706
 C   +2.44656658   -0.05781050   +1.35108824
 C   +2.72541730   -1.42997426   +0.85230556
 C   +2.97629163   -2.56672072   +1.46707745
 C   +3.02312574   -2.75655469   +2.95219974
 C   +1.86147961   -3.60159750   +3.45101139
 O   +1.09346437   +0.02035904   +3.30315287
 H   +1.83699132   -4.57136192   +2.95783716
 H   +0.39473245   +0.93387834   -0.39376790
 H   +0.91470867   -3.10148280   +3.26354301
 H   +1.94276025   -3.77147252   +4.52158108
 H   +3.01111401   -1.79197015   +3.45389837
 H   +3.96492037   -3.24478990   +3.20541701
 H   +3.14961140   -3.44839046   +0.85929995
 H   +2.76364835   -1.52099890   -0.55995847
 H   +2.44983870   +0.64914473   +0.52290469
 H   +3.21513276   +0.25407306   +2.05401994
 H   +0.56020586   -0.83963986   -0.40065312
 H   -1.03866360   -0.09242844   -0.29143460
 H   +2.79309420   -1.57271229   -1.43019918
22
 * E =  +7.671 kcal/mol ; (11) 357_285_294_233
 C   +0.00000000   +0.00000000   +0.00000000
 O   +0.00000000   +0.00000000   +1.41148614
 C   +1.13636520   +0.00000000   +2.10728780
 C   +2.44662795   -0.06174725   +1.35164050
 C   +2.71914092   -1.41776513   +0.80838978
 C   +2.95892106   -2.57970866   +1.37872782
 C   +3.01250255   -2.83378762   +2.85344348
 C   +4.30910570   -3.51179826   +3.26229681
 O   +1.09368718   +0.03106055   +3.30288232
 H   +5.16759568   -2.88323538   +3.03769002
 H   +0.40863404   +0.92770103   -0.39427079
 H   +4.44283613   -4.45573720   +2.73734559
 H   +4.31546026   -3.72060909   +4.32902895
 H   +2.16956409   -3.47232114   +3.12266291
 H   +2.87474317   -1.90421187   +3.40056387
 H   +3.14882375   -3.43339793   +0.73613637
 H   +2.77574626   -1.45462811   -0.60399557
 H   +2.45911763   +0.67061516   +0.54533179
 H   +3.21685081   +0.22184584   +2.06467010
 H   +0.54797879   -0.84772510   -0.40036892
 H   -1.03993057   -0.07694553   -0.29141092
 H   +2.81691886   -1.47221745   -1.47579163
22
 * E =  +8.544 kcal/mol ; (12) 357_168_067_243
 C   +0.00000000   +0.00000000   +0.00000000
 O   +0.00000000   +0.00000000   +1.40925123
 C   +1.13500663   +0.00000000   +2.11796791
 C   +2.43194695   -0.06930163   +1.33808058
 C   +3.63322963   +0.20623237   +2.15102668
 C   +4.22134440   -0.42233559   +3.14355213
 C   +3.74739173   -1.69538574   +3.77183067
 C   +3.38233299   -1.49215959   +5.23283226
 O   +1.07486156   +0.01733507   +3.30988476
 H   +2.56393042   -0.78338488   +5.31575675
 H   +0.37794113   +0.93951394   -0.39700033
 H   +4.22993158   -1.10889982   +5.79796389
 H   +3.07479049   -2.43046111   +5.68856612
 H   +4.53882722   -2.44232719   +3.68896197
 H   +2.88392708   -2.07836111   +3.23161962
 H   +5.11351353   +0.02093757   +3.57333818
 H   +4.27551548   +1.41969490   +1.77203643
 H   +2.48907789   -1.06896471   +0.89738290
 H   +2.38904554   +0.61802905   +0.49424942
 H   +0.57476132   -0.82923333   -0.40539275
 H   -1.03623977   -0.11348021   -0.29283923
 H   +4.66498813   +2.15621754   +1.53431609
22
 * E =  +8.706 kcal/mol ; (13) 000_082_006_098
 C   +0.00000000   +0.00000000   +0.00000000
 O   +0.00000000   +0.00000000   +1.41261884
 C   +1.14175262   +0.00000000   +2.10546992
 C   +2.44375108   -0.00332796   +1.33768949
 C   +2.87104772   +1.32956501   +0.85299687
 C   +2.48684196   +2.58356938   +0.96570097
 C   +1.31196107   +3.13944634   +1.71676867
 C   +1.72175938   +3.66962972   +3.08245495
 O   +1.10327097   +0.01801671   +3.30039226
 H   +2.51469405   +4.40968043   +2.99684093
 H   +0.63091895   +0.79107209   -0.39705205
 H   +2.07889644   +2.85844011   +3.71122677
 H   +0.87674798   +4.13730648   +3.58176610
 H   +0.52834030   +2.39740113   +1.83808895
 H   +0.88414261   +3.94761371   +1.12394691
 H   +3.12255599   +3.32297313   +0.48856832
 H   +4.04886390   +1.20558323   +0.11211068
 H   +3.19306761   -0.38534792   +2.02640262
 H   +2.39298014   -0.69528143   +0.49727497
 H   +0.31684870   -0.96411112   -0.39108832
 H   -1.02723865   +0.17699839   -0.29292615
 H   +4.79412800   +1.15577183   -0.35624380
22
 * E =  +8.765 kcal/mol ; (14) 356_282_125_121
 C   +0.00000000   +0.00000000   +0.00000000
 O   +0.00000000   +0.00000000   +1.41053610
 C   +1.13545122   +0.00000000   +2.11235334
 C   +2.44818249   -0.08931364   +1.36199803
 C   +2.74763409   -1.46985567   +0.91934718
 C   +3.02370905   -2.02162377   -0.24368105
 C   +3.08979230   -1.32742491   -1.56918414
 C   +4.45623421   -1.46671516   -2.21953235
 O   +1.08782445   +0.05469038   +3.30495595
 H   +4.71868724   -2.51384569   -2.35381780
 H   +0.42388187   +0.92139628   -0.39462537
 H   +5.22748748   -1.00849610   -1.60562085
 H   +4.47298673   -0.99121346   -3.19705657
 H   +2.83648352   -0.27403151   -1.45934344
 H   +2.33436000   -1.76152611   -2.22709244
 H   +3.23807542   -3.08550010   -0.25811970
 H   +2.79440479   -2.40208768   +1.99993556
 H   +2.45771327   +0.59317157   +0.51063161
 H   +3.20564975   +0.24328332   +2.06626401
 H   +0.53423811   -0.85705488   -0.39891759
 H   -1.04128218   -0.05772393   -0.29154417
 H   +2.84826450   -2.99887525   +2.62502964
22
 * E =  +8.771 kcal/mol ; (15) 356_281_127_231
 C   +0.00000000   +0.00000000   +0.00000000
 O   +0.00000000   +0.00000000   +1.41034377
 C   +1.13771244   +0.00000000   +2.10898474
 C   +2.44644208   -0.09511696   +1.35299490
 C   +2.74964234   -1.48227252   +0.93387237
 C   +3.05277879   -2.04768368   -0.21574149
 C   +3.13343431   -1.37386192   -1.55142150
 C   +2.32265751   -2.10363927   -2.60882670
 O   +1.09421223   +0.05728388   +3.30151997
 H   +1.26711752   -2.13567649   -2.34672613
 H   +0.39273230   +0.93578589   -0.39312245
 H   +2.66276233   -3.13107462   -2.71890982
 H   +2.41417413   -1.61751069   -3.57679271
 H   +4.17876477   -1.33961407   -1.86208826
 H   +2.80342021   -0.33858230   -1.47394800
 H   +3.26566532   -3.11204517   -0.21235023
 H   +2.77169941   -2.40184614   +2.02684735
 H   +2.44994390   +0.57183429   +0.48944700
 H   +3.20735242   +0.25296174   +2.04611936
 H   +0.56294644   -0.83849855   -0.39939988
 H   -1.03850696   -0.09312327   -0.29250055
 H   +2.80890828   -2.99144423   +2.65945987
22
 * E =  +9.044 kcal/mol ; (16) 357_168_067_134
 C   +0.00000000   +0.00000000   +0.00000000
 O   +0.00000000   +0.00000000   +1.40908021
 C   +1.13619256   +0.00000000   +2.11727284
 C   +2.43330353   -0.06539172   +1.33641165
 C   +3.62977863   +0.22272758   +2.15109233
 C   +4.21637821   -0.40291713   +3.14627467
 C   +3.75731087   -1.69138287   +3.75321451
 C   +4.89526666   -2.67719623   +3.94633226
 O   +1.07818924   +0.01288202   +3.30895622
 H   +5.67477012   -2.25559592   +4.57808593
 H   +0.37669102   +0.93981439   -0.39756387
 H   +5.35066264   -2.94529621   +2.99554762
 H   +4.54342520   -3.59025645   +4.42022695
 H   +2.96982651   -2.13105351   +3.14358158
 H   +3.29285461   -1.46303493   +4.71309646
 H   +5.10058945   +0.04683730   +3.58594601
 H   +4.25786343   +1.44961789   +1.78418993
 H   +2.49774686   -1.06995844   +0.90691056
 H   +2.38787228   +0.61330633   +0.48607656
 H   +0.57516677   -0.82880989   -0.40584878
 H   -1.03616584   -0.11451031   -0.29289568
 H   +4.63966459   +2.19157244   +1.55471803
22
 * E =  +9.200 kcal/mol ; (17) 358_173_115_123
 C   +0.00000000   +0.00000000   +0.00000000
 O   +0.00000000   +0.00000000   +1.40855618
 C   +1.13874034   +0.00000000   +2.11346544
 C   +2.43171148   -0.05389401   +1.33051425
 C   +3.61519096   +0.10546265   +2.19180626
 C   +4.62021295   -0.67372990   +2.52184646
 C   +4.84286414   -2.08714899   +2.08004090
 C   +6.18453697   -2.26718105   +1.39038375
 O   +1.08846128   +0.02879073   +3.30476784
 H   +7.00132942   -1.96377215   +2.04204570
 H   +0.40589404   +0.92712615   -0.39886910
 H   +6.24323603   -1.66539120   +0.48654452
 H   +6.34704496   -3.30688648   +1.11656399
 H   +4.03861056   -2.41285451   +1.42295921
 H   +4.79950170   -2.73106399   +2.95943057
 H   +5.37554760   -0.26702892   +3.18666080
 H   +3.68316927   +1.40617715   +2.78811282
 H   +2.46866112   -1.00577943   +0.79373648
 H   +2.41788750   +0.72076648   +0.56277991
 H   +0.54968465   -0.84617351   -0.40561725
 H   -1.03887740   -0.08284514   -0.29389523
 H   +3.75837870   +2.18935530   +3.14209479
22
 * E = +10.420 kcal/mol ; (18) 004_192_297_331
 C   +0.00000000   +0.00000000   +0.00000000
 O   +0.00000000   +0.00000000   +1.40949104
 C   +1.13723432   +0.00000000   +2.11499875
 C   +2.43169606   +0.09040860   +1.33433182
 C   +3.62896266   -0.18599614   +2.15152373
 C   +4.22567673   +0.35024880   +3.19301973
 C   +3.85190458   +1.58485599   +3.96019179
 C   +3.11994406   +2.66293626   +3.18655143
 O   +1.08250892   -0.02800521   +3.30725076
 H   +2.11047707   +2.35768867   +2.92872251
 H   +0.57077734   +0.83184772   -0.40557651
 H   +3.65411867   +2.92406743   +2.27458353
 H   +3.03479180   +3.56400500   +3.78875383
 H   +4.76813828   +2.00224941   +4.37650397
 H   +3.24592997   +1.27054595   +4.81156721
 H   +5.09187151   -0.18126205   +3.57314653
 H   +4.25936797   -1.36565632   +1.72902113
 H   +2.39833415   -0.59757646   +0.48997717
 H   +2.47814531   +1.09095763   +0.89682861
 H   +0.38202055   -0.93788473   -0.39680327
 H   -1.03677131   +0.10876004   -0.29280264
 H   +4.64849725   -2.10333326   +1.46127964
