22
 * E =  +0.000 kcal/mol ; (1) 183_197_158_235
 C   +0.00000000   +0.00000000   +0.00000000
 O   +0.00000000   +0.00000000   +1.41702446
 C   +1.20269691   +0.00000000   +1.98539560
 C   +1.10136706   -0.06782884   +3.46791373
 C   +2.32212287   +0.32174187   +4.18384257
 C   +2.38586551   +0.74670265   +5.44556132
 C   +1.25867384   +0.93453772   +6.40100828
 C   +1.21683737   +2.34481168   +6.96849362
 O   +2.22762864   +0.01224528   +1.35804743
 H   +1.05502786   +3.07691255   +6.18097456
 H   +0.50478574   +0.88350308   -0.37771977
 H   +2.15358734   +2.59394069   +7.46305674
 H   +0.41760259   +2.44994500   +7.69803926
 H   +1.37871560   +0.22575016   +7.22280129
 H   +0.30679189   +0.69338277   +5.93300380
 H   +3.36619103   +0.99570819   +5.83413558
 H   +3.23394931   +0.22714911   +3.61170923
 H   +0.17852437   +0.37865910   +3.81987743
 H   +0.88703405   -1.24930883   +3.66009028
 H   +0.50595363   -0.88284008   -0.37795317
 H   -1.04094099   -0.00067094   -0.29564885
 H   +0.63190253   -2.30172449   +3.83758698
22
 * E =  +0.067 kcal/mol ; (2) 183_197_158_120
 C   +0.00000000   +0.00000000   +0.00000000
 O   +0.00000000   +0.00000000   +1.41699675
 C   +1.20244674   +0.00000000   +1.98579357
 C   +1.10023206   -0.06923906   +3.46829125
 C   +2.32174227   +0.31729923   +4.18555042
 C   +2.38658809   +0.73613950   +5.44918436
 C   +1.26282621   +0.89516943   +6.41405645
 C   +1.44408334   +0.02011516   +7.64586508
 O   +2.22770166   +0.01301776   +1.35904703
 H   +2.38300417   +0.24322254   +8.14848834
 H   +0.50361814   +0.88412916   -0.37780144
 H   +1.45587074   -1.03316097   +7.37637582
 H   +0.63891182   +0.17870733   +8.35911781
 H   +0.30946049   +0.66786202   +5.94282608
 H   +1.21365683   +1.93952924   +6.72776481
 H   +3.36785437   +0.97874673   +5.83924594
 H   +3.23282305   +0.22776054   +3.61142368
 H   +0.17788691   +0.37863888   +3.81915309
 H   +0.88476173   -1.25001095   +3.65908316
 H   +0.50696440   -0.88225754   -0.37795802
 H   -1.04094878   -0.00189199   -0.29559819
 H   +0.62840822   -2.30322067   +3.83857598
22
 * E =  +0.798 kcal/mol ; (3) 178_034_148_236
 C   +0.00000000   +0.00000000   +0.00000000
 O   +0.00000000   +0.00000000   +1.41696891
 C   +1.20308148   +0.00000000   +1.98437471
 C   +1.13733593   +0.05576872   +3.46974661
 C   +0.01478704   -0.63082836   +4.12433513
 C   +0.04847604   -1.21636023   +5.32214095
 C   +1.20359938   -1.33520212   +6.25481940
 C   +1.48913171   -2.78140618   +6.62888182
 O   +2.22609098   +0.00211648   +1.35342512
 H   +1.76550293   -3.36260063   +5.75252667
 H   +0.50561499   +0.88319671   -0.37735569
 H   +0.61350107   -3.24982275   +7.07399026
 H   +2.30218323   -2.84590204   +7.34768249
 H   +0.97415998   -0.77349872   +7.16248723
 H   +2.09628330   -0.87823105   +5.83489046
 H   -0.86943531   -1.67584759   +5.66966097
 H   -0.91543084   -0.62889219   +3.57545120
 H   +2.11881164   -0.16237636   +3.87065997
 H   +1.02721655   +1.25027706   +3.68022659
 H   +0.50570170   -0.88300877   -0.37749021
 H   -1.04093408   -0.00017730   -0.29582013
 H   +0.98976099   +2.32472283   +3.88005725
22
 * E =  +0.876 kcal/mol ; (4) 178_034_147_120
 C   +0.00000000   +0.00000000   +0.00000000
 O   +0.00000000   +0.00000000   +1.41699228
 C   +1.20307586   +0.00000000   +1.98432724
 C   +1.13756436   +0.05456591   +3.46992505
 C   +0.01035773   -0.62467689   +4.12473748
 C   +0.04268882   -1.22395888   +5.31570071
 C   +1.19504825   -1.35032565   +6.25102009
 C   +0.90521471   -0.70435681   +7.59799931
 O   +2.22605547   +0.00295672   +1.35342258
 H   +0.01819060   -1.13701365   +8.05633563
 H   +0.50074631   +0.88591751   -0.37749900
 H   +0.73313181   +0.36359670   +7.48843452
 H   +1.73649648   -0.84495928   +8.28445368
 H   +2.09682061   -0.91833001   +5.82477824
 H   +1.40372717   -2.41037898   +6.40598911
 H   -0.88135730   -1.66914283   +5.66541493
 H   -0.92257427   -0.60637390   +3.58080164
 H   +2.11796223   -0.16915472   +3.86982043
 H   +1.03305702   +1.24925065   +3.68036412
 H   +0.51042638   -0.88028945   -0.37742848
 H   -1.04093601   -0.00565948   -0.29576540
 H   +1.00043082   +2.32410930   +3.88260306
22
 * E =  +1.751 kcal/mol ; (5) 181_196_297_119
 C   +0.00000000   +0.00000000   +0.00000000
 O   +0.00000000   +0.00000000   +1.41627940
 C   +1.20429005   +0.00000000   +1.98630580
 C   +1.08279702   -0.03419341   +3.46946498
 C   +2.26734498   +0.32131979   +4.27103648
 C   +3.42639824   -0.33350843   +4.30002963
 C   +3.79134084   -1.56869361   +3.55533857
 C   +4.96793050   -1.33864026   +2.61935848
 O   +2.22701768   -0.00160911   +1.35625321
 H   +5.83502843   -0.96900590   +3.16402253
 H   +0.51102783   +0.87996237   -0.37788629
 H   +4.70145541   -0.61009462   +1.85983058
 H   +5.25536637   -2.26347073   +2.12483306
 H   +2.94218814   -1.94247240   +2.98970318
 H   +4.05524306   -2.34035387   +4.28161574
 H   +4.20200103   +0.06672180   +4.94259158
 H   +2.15473596   +1.18744324   +4.90864333
 H   +0.17715905   +0.47544941   +3.77921699
 H   +0.77660116   -1.21439438   +3.68843439
 H   +0.49950083   -0.88615163   -0.37911613
 H   -1.04090334   +0.00654309   -0.29593034
 H   +0.49280602   -2.19897162   +3.88961214
22
 * E =  +2.016 kcal/mol ; (6) 182_194_300_223
 C   +0.00000000   +0.00000000   +0.00000000
 O   +0.00000000   +0.00000000   +1.41621799
 C   +1.20519595   +0.00000000   +1.98522417
 C   +1.08602619   -0.05626149   +3.46813259
 C   +2.28463798   +0.24689991   +4.26806679
 C   +3.43783201   -0.41845879   +4.22873290
 C   +3.76015080   -1.61623472   +3.40636870
 C   +4.52845671   -2.66232073   +4.19489913
 O   +2.22765668   +0.01230703   +1.35549789
 H   +3.94535652   -3.02683653   +5.03778528
 H   +0.50361178   +0.88394064   -0.37857127
 H   +5.45761559   -2.25323966   +4.58782887
 H   +4.78126274   -3.51437413   +3.56891091
 H   +4.34640851   -1.29393748   +2.54462044
 H   +2.85107282   -2.04791122   +2.99261284
 H   +4.23479718   -0.06580845   +4.87318913
 H   +2.19449484   +1.07690493   +4.95492044
 H   +0.19530825   +0.47084996   +3.79168087
 H   +0.75210556   -1.23078017   +3.66390356
 H   +0.50669962   -0.88217393   -0.37885919
 H   -1.04092109   -0.00201528   -0.29604033
 H   +0.43934744   -2.21748684   +3.84365405
22
 * E =  +3.032 kcal/mol ; (7) 179_029_288_120
 C   +0.00000000   +0.00000000   +0.00000000
 O   +0.00000000   +0.00000000   +1.41653707
 C   +1.20288318   +0.00000000   +1.98030963
 C   +1.16305017   +0.02715092   +3.46789736
 C   +0.03177366   -0.57467397   +4.20305369
 C   -1.21201560   -0.10781783   +4.28784410
 C   -1.76735494   +1.12375158   +3.66395309
 C   -2.92466454   +0.80927971   +2.72863411
 O   +2.22449927   +0.01455533   +1.34499056
 H   -3.72376823   +0.28951233   +3.25382452
 H   +0.50734573   +0.88135110   -0.37946647
 H   -2.58949899   +0.17317149   +1.91395086
 H   -3.34230418   +1.71975107   +2.30552936
 H   -0.99423571   +1.66324151   +3.12466111
 H   -2.12142716   +1.78372413   +4.45838030
 H   -1.91280459   -0.68225162   +4.88248129
 H   +0.27207590   -1.47403962   +4.75455751
 H   +2.13119601   -0.29956830   +3.82864323
 H   +1.20924026   +1.24717461   +3.72207362
 H   +0.50304508   -0.88458687   -0.37756834
 H   -1.04129898   +0.00151613   -0.29602519
 H   +1.29078723   +2.24259701   +3.96852631
22
 * E =  +3.078 kcal/mol ; (8) 179_028_290_227
 C   +0.00000000   +0.00000000   +0.00000000
 O   +0.00000000   +0.00000000   +1.41658573
 C   +1.20333125   +0.00000000   +1.97875900
 C   +1.16526465   +0.03041876   +3.46665722
 C   +0.02295700   -0.54823448   +4.20097895
 C   -1.21928286   -0.07165060   +4.25176418
 C   -1.74732621   +1.15843719   +3.60201388
 C   -2.57141514   +2.00098170   +4.56072207
 O   +2.22463566   +0.01176595   +1.34278858
 H   -1.96707825   +2.34535486   +5.39676214
 H   +0.50133977   +0.88498769   -0.37919601
 H   -3.40518388   +1.43159593   +4.96754723
 H   -2.98001795   +2.87503565   +4.05982054
 H   -2.36618346   +0.86147502   +2.75293215
 H   -0.93514119   +1.74811246   +3.18426691
 H   -1.93585703   -0.62679429   +4.84611809
 H   +0.24748305   -1.43833641   +4.77347243
 H   +2.12822544   -0.30994436   +3.82853162
 H   +1.22881501   +1.25011943   +3.71578064
 H   +0.51011851   -0.88056972   -0.37756047
 H   -1.04099175   -0.00651223   -0.29598184
 H   +1.32609456   +2.24806898   +3.95795613
22
 * E =  +4.034 kcal/mol ; (9) 178_033_155_359
 C   +0.00000000   +0.00000000   +0.00000000
 O   +0.00000000   +0.00000000   +1.41676275
 C   +1.20251277   +0.00000000   +1.98519447
 C   +1.14291113   +0.05334328   +3.47192763
 C   +0.00884532   -0.62662865   +4.12027561
 C   -0.08581492   -1.12142211   +5.35632618
 C   +0.86328333   -1.17272975   +6.50828309
 C   +2.25761205   -0.60145219   +6.35663041
 O   +2.22526097   +0.00492697   +1.35335010
 H   +2.23685534   +0.44642784   +6.06726202
 H   +0.50522134   +0.88345353   -0.37731297
 H   +2.84322500   -1.15022948   +5.62354236
 H   +2.78556941   -0.66725826   +7.30468314
 H   +0.93692093   -2.21671170   +6.82043475
 H   +0.36561873   -0.67380109   +7.34323489
 H   -1.04479112   -1.56707296   +5.59301996
 H   -0.87335865   -0.70027349   +3.50085406
 H   +2.12502414   -0.17099072   +3.85905052
 H   +1.04444884   +1.24290722   +3.68514042
 H   +0.50641316   -0.88260839   -0.37751108
 H   -1.04092081   -0.00074869   -0.29594678
 H   +1.02521710   +2.32481924   +3.90603511
22
 * E =  +4.542 kcal/mol ; (10) 179_045_030_243
 C   +0.00000000   +0.00000000   +0.00000000
 O   +0.00000000   +0.00000000   +1.41535161
 C   +1.20264925   +0.00000000   +1.98278542
 C   +1.12574909   +0.02466457   +3.46294982
 C   +0.18607883   -0.85638768   +4.19044287
 C   -0.25526198   -2.06198907   +3.84212331
 C   +0.07738281   -2.86991634   +2.63548249
 C   -1.14238821   -3.12499596   +1.76393566
 O   +2.22731840   +0.03497796   +1.35244498
 H   -1.55548006   -2.18801729   +1.40017939
 H   +0.53588727   +0.86338380   -0.38124211
 H   -1.92229019   -3.63579850   +2.32534277
 H   -0.88856734   -3.74675039   +0.90854841
 H   +0.47715917   -3.82774907   +2.97333439
 H   +0.86982300   -2.40870602   +2.05195694
 H   -0.94355700   -2.53875349   +4.53040025
 H   -0.14735112   -0.45988145   +5.14061376
 H   +2.12584018   +0.06093073   +3.88352188
 H   +0.72250474   +1.19076616   +3.69683655
 H   +0.47379932   -0.90217239   -0.37720208
 H   -1.04044439   +0.03391181   -0.29646233
 H   +0.38548286   +2.11396160   +3.94921548
22
 * E =  +8.423 kcal/mol ; (11) 003_188_160_235
 C   +0.00000000   +0.00000000   +0.00000000
 O   +0.00000000   +0.00000000   +1.40981658
 C   +1.13711143   +0.00000000   +2.11317504
 C   +2.42580251   +0.07964086   +1.35524128
 C   +3.62196005   -0.12006325   +2.18272387
 C   +4.82571727   -0.47490613   +1.73353701
 C   +5.22954509   -0.75636894   +0.32777367
 C   +5.86128851   -2.13143990   +0.17669501
 O   +1.08159506   -0.02073050   +3.30841199
 H   +5.15585545   -2.91592210   +0.43987158
 H   +0.57108260   +0.83195858   -0.40427352
 H   +6.72711350   -2.23544107   +0.82736315
 H   +6.19138517   -2.30089620   -0.84521235
 H   +5.95165113   +0.00116076   +0.01663648
 H   +4.38356498   -0.65880657   -0.34961898
 H   +5.61394538   -0.58289002   +2.46896088
 H   +3.47979732   +0.05838672   +3.23810636
 H   +2.41487071   -0.49329211   +0.43421809
 H   +2.42599958   +1.22168195   +0.92498489
 H   +0.38019222   -0.93964928   -0.39548285
 H   -1.03697525   +0.10895946   -0.29199784
 H   +2.41436052   +2.22324768   +0.48241814
22
 * E =  +8.493 kcal/mol ; (12) 003_189_161_118
 C   +0.00000000   +0.00000000   +0.00000000
 O   +0.00000000   +0.00000000   +1.40987561
 C   +1.13750833   +0.00000000   +2.11248619
 C   +2.42575382   +0.07214152   +1.35294639
 C   +3.62272748   -0.13078330   +2.17954899
 C   +4.83041831   -0.46524422   +1.72565092
 C   +5.24280128   -0.68885897   +0.31185760
 C   +6.30696683   +0.30510323   -0.13150819
 O   +1.08296730   -0.01663988   +3.30780850
 H   +7.18277009   +0.25145599   +0.51168581
 H   +0.58028564   +0.82558309   -0.40421079
 H   +5.92860540   +1.32357091   -0.08990931
 H   +6.62912097   +0.10349752   -1.15019426
 H   +4.38859266   -0.62872823   -0.35909136
 H   +5.64248311   -1.69994282   +0.21698646
 H   +5.62040767   -0.57233856   +2.45913317
 H   +3.47682545   +0.02744569   +3.23764029
 H   +2.40929023   -0.50364982   +0.43397549
 H   +2.43323712   +1.21185238   +0.91903490
 H   +0.36996230   -0.94381237   -0.39524214
 H   -1.03568193   +0.12027191   -0.29214773
 H   +2.43744520   +2.21156872   +0.46909746
22
 * E = +10.047 kcal/mol ; (13) 003_189_298_120
 C   +0.00000000   +0.00000000   +0.00000000
 O   +0.00000000   +0.00000000   +1.40980536
 C   +1.13480486   +0.00000000   +2.12050854
 C   +2.42243056   +0.06783755   +1.35831658
 C   +3.67068607   -0.12646970   +2.11706707
 C   +4.11689582   +0.64629731   +3.10516540
 C   +3.47882413   +1.87001440   +3.65979597
 C   +3.15234245   +1.71611536   +5.13751319
 O   +1.06840211   -0.02419438   +3.31457673
 H   +4.04529778   +1.47669177   +5.71229935
 H   +0.37419614   -0.94228100   -0.39518217
 H   +2.42749701   +0.92021005   +5.27721577
 H   +2.73542094   +2.63683831   +5.53821863
 H   +2.57433893   +2.11824412   +3.11077273
 H   +4.17046869   +2.70505625   +3.52908502
 H   +5.05677995   +0.36388953   +3.56478827
 H   +4.27839935   -0.96544669   +1.80785729
 H   +2.39099104   -0.53314479   +0.45522313
 H   +2.41710321   +1.21616448   +0.88568235
 H   -1.03660842   +0.11433694   -0.29160750
 H   +0.57602230   +0.82728654   -0.40595189
 H   +2.43071270   +2.17560477   +0.46702742
22
 * E = +10.362 kcal/mol ; (14) 003_188_300_222
 C   +0.00000000   +0.00000000   +0.00000000
 O   +0.00000000   +0.00000000   +1.40967881
 C   +1.13610511   +0.00000000   +2.11957987
 C   +2.42274337   +0.07959697   +1.35617468
 C   +3.67114239   -0.09611407   +2.11713519
 C   +4.07997501   +0.66803108   +3.12826793
 C   +3.39137683   +1.86081426   +3.68993390
 C   +4.35705908   +2.99450554   +3.98743215
 O   +1.07221324   -0.03206634   +3.31326613
 H   +4.85396387   +3.33743304   +3.08249504
 H   +0.57113922   +0.83060097   -0.40618440
 H   +5.12762626   +2.67921841   +4.68870163
 H   +3.83789021   +3.84255562   +4.42649713
 H   +2.87688370   +1.55906307   +4.60334209
 H   +2.60759993   +2.20052716   +3.01564712
 H   +5.02266344   +0.40772560   +3.59530572
 H   +4.30601376   -0.91041598   +1.79738394
 H   +2.39889616   -0.52179033   +0.45321125
 H   +2.40517356   +1.22817843   +0.88646161
 H   +0.37959654   -0.94003674   -0.39545982
 H   -1.03722836   +0.10835057   -0.29178610
 H   +2.40619971   +2.19060644   +0.46517750
22
 * E = +12.328 kcal/mol ; (15) 359_285_308_103
 C   +0.00000000   +0.00000000   +0.00000000
 O   +0.00000000   +0.00000000   +1.41102332
 C   +1.14037781   +0.00000000   +2.11178820
 C   +2.42642281   -0.01194718   +1.33172345
 C   +2.83389963   -1.27603958   +0.69480366
 C   +2.93789707   -2.46324848   +1.29926608
 C   +2.66311900   -2.76241454   +2.73250182
 C   +1.32371782   -3.46223642   +2.92689135
 O   +1.08336401   +0.01572718   +3.30595850
 H   +1.27058107   -4.38204371   +2.34765593
 H   +0.41512308   +0.92413483   -0.39621337
 H   +0.50218242   -2.82027169   +2.61768584
 H   +1.17137721   -3.71352150   +3.97324107
 H   +2.68687722   -1.85147553   +3.32499596
 H   +3.45907008   -3.40694173   +3.10580734
 H   +3.24876948   -3.30033237   +0.68621314
 H   +3.11558292   -1.21050833   -0.34764726
 H   +2.47651672   +0.82977954   +0.64728198
 H   +3.28744534   +0.30035920   +2.22477443
 H   +0.54370767   -0.85177740   -0.39841237
 H   -1.04089013   -0.07008626   -0.29046639
 H   +3.90632061   +0.55677269   +2.93831986
22
 * E = +12.497 kcal/mol ; (16) 002_279_304_222
 C   +0.00000000   +0.00000000   +0.00000000
 O   +0.00000000   +0.00000000   +1.41046432
 C   +1.14229022   +0.00000000   +2.10789197
 C   +2.42488635   +0.03918913   +1.32388164
 C   +2.91584339   -1.22808073   +0.75476150
 C   +3.16006182   -2.35377801   +1.43149319
 C   +3.01668525   -2.57602594   +2.89689012
 C   +4.17056053   -3.38877972   +3.45917412
 O   +1.09104395   -0.02299769   +3.30206219
 H   +5.11667812   -2.86969986   +3.32366018
 H   +0.35085552   +0.95062064   -0.39587636
 H   +4.24898816   -4.35702109   +2.96771521
 H   +4.03613063   -3.56596570   +4.52287166
 H   +2.08014890   -3.10671126   +3.08467641
 H   +2.92889768   -1.62783146   +3.42064469
 H   +3.52588704   -3.19905564   +0.85998748
 H   +3.13735839   -1.21615288   -0.30418469
 H   +2.42031062   +0.84366349   +0.59486762
 H   +3.26499323   +0.45101071   +2.19851998
 H   +0.60032623   -0.81283112   -0.39936378
 H   -1.03319951   -0.14189518   -0.29186581
 H   +3.87043147   +0.77958583   +2.89120791
