22
 * E =  +0.000 kcal/mol ; (1) 178_161_192_117
 C   +0.00000000   +0.00000000   +0.00000000
 C   +0.00000000   +0.00000000   +1.49911750
 O   +1.23853368   +0.00000000   +1.98295632
 O   -0.97647596   +0.03155447   +2.19635698
 C   +1.33727085   +0.04999970   +3.39587470
 H   +2.39613088   +0.03920467   +3.61887689
 H   +0.87525729   +0.95579166   +3.77591643
 H   +0.84380532   -0.80911682   +3.83886037
 C   -1.30894158   -0.44852242   -0.56874224
 C   -1.52310674   -0.75567926   -1.85576847
 C   -0.49734147   -0.87022713   -2.92806520
 C   -0.42763616   -2.27872146   -3.50084934
 H   +0.84051076   -0.59337019   -0.34735605
 H   -2.15280675   -0.35499918   +0.09998431
 H   -2.53677455   -1.00419431   -2.14514916
 H   -0.74583908   -0.17322113   -3.73080914
 H   +0.48128069   -0.57173984   -2.55782557
 H   +0.30162161   -2.33880586   -4.30511876
 H   -0.14740793   -2.99595804   -2.73325574
 H   -1.39199723   -2.58425404   -3.90153649
 H   +0.21062397   +1.02947012   -0.30055102
 H   -1.14484917   -2.28313389   +0.23200543
22
 * E =  +0.089 kcal/mol ; (2) 178_162_190_229
 C   +0.00000000   +0.00000000   +0.00000000
 C   +0.00000000   +0.00000000   +1.49902293
 O   +1.23875241   +0.00000000   +1.98247969
 O   -0.97612260   +0.03011257   +2.19682514
 C   +1.33798836   +0.04819353   +3.39539854
 H   +2.39701511   +0.04241961   +3.61781381
 H   +0.87139507   +0.95088149   +3.77718322
 H   +0.84941146   -0.81429980   +3.83728228
 C   -1.31627424   -0.42701427   -0.56917871
 C   -1.53826871   -0.70886874   -1.86007126
 C   -0.52170463   -0.78147951   -2.94485889
 C   -0.93016308   +0.01911401   -4.17162021
 H   +0.83006378   -0.60912176   -0.34513501
 H   -2.15529652   -0.34602036   +0.10706655
 H   -2.55454772   -0.94575765   -2.15039657
 H   +0.44676548   -0.43828563   -2.58679085
 H   -0.39016419   -1.82725804   -3.23378165
 H   -0.19435501   -0.07899664   -4.96590488
 H   -1.88676858   -0.32439146   -4.56016419
 H   -1.03126224   +1.07528876   -3.93321327
 H   +0.22982190   +1.02509367   -0.30161579
 H   -1.16148322   -2.28296769   +0.20195630
22
 * E =  +0.284 kcal/mol ; (3) 177_151_074_237
 C   +0.00000000   +0.00000000   +0.00000000
 C   +0.00000000   +0.00000000   +1.50429547
 O   +1.23975583   +0.00000000   +1.98761535
 O   -0.97379413   +0.03746453   +2.20498435
 C   +1.33990316   +0.06894043   +3.39960079
 H   +2.39894616   +0.06037570   +3.62189104
 H   +0.87882374   +0.98006297   +3.76783057
 H   +0.84614167   -0.78344864   +3.85524634
 C   -1.20701020   -0.65987128   -0.59125845
 C   -2.43778441   -0.13156397   -0.61803513
 C   -2.83586376   +1.23316781   -0.18428696
 C   -3.90682289   +1.18755482   +0.89534726
 H   +0.91598706   -0.46639340   -0.34781699
 H   -1.09308155   -1.70033354   -0.86035027
 H   -3.23653794   -0.75163801   -1.00698481
 H   -1.97508752   +1.78458338   +0.18638372
 H   -3.21811113   +1.78037494   -1.04927232
 H   -4.22032649   +2.19122607   +1.17253165
 H   -4.78678631   +0.64735803   +0.55087417
 H   -3.52238999   +0.68856806   +1.78001355
 H   +0.06282142   +1.04651136   -0.29849190
 H   -0.56456829   -0.32977140   -2.48665287
22
 * E =  +0.326 kcal/mol ; (4) 183_085_078_240
 C   +0.00000000   +0.00000000   +0.00000000
 C   +0.00000000   +0.00000000   +1.50044493
 O   +1.23304208   +0.00000000   +1.99796602
 O   -0.98487759   -0.03066142   +2.18838851
 C   +1.31758413   -0.06524194   +3.41093678
 H   +2.37392947   -0.05246229   +3.64540645
 H   +0.81540378   +0.78612226   +3.85925162
 H   +0.85574523   -0.97771998   +3.77487035
 C   +0.13358740   -1.41408838   -0.49906733
 C   -0.86403973   -2.31024673   -0.53089378
 C   -2.29744187   -2.07205352   -0.21341647
 C   -2.77075593   -2.94535848   +0.93984914
 H   +0.82685611   +0.60129051   -0.36373674
 H   +1.14223284   -1.76131963   -0.67078045
 H   -0.61187546   -3.31817258   -0.83849181
 H   -2.47077536   -1.02909669   +0.03660487
 H   -2.89333451   -2.29734643   -1.10049458
 H   -3.83355402   -2.80397643   +1.11928489
 H   -2.60416114   -4.00034543   +0.73034005
 H   -2.23923982   -2.69079089   +1.85284006
 H   -0.93043767   +0.45010633   -0.32739007
 H   +0.22471365   -0.83194532   -2.42753331
22
 * E =  +0.471 kcal/mol ; (5) 183_076_078_118
 C   +0.00000000   +0.00000000   +0.00000000
 C   +0.00000000   +0.00000000   +1.50044643
 O   +1.23489494   +0.00000000   +1.99450714
 O   -0.98298627   -0.02524262   +2.19055044
 C   +1.32371106   -0.06228723   +3.40715517
 H   +2.38089603   -0.05563126   +3.63820104
 H   +0.82872013   +0.79332691   +3.85548971
 H   +0.85729270   -0.97090349   +3.77491240
 C   +0.33878220   -1.37354112   -0.51330116
 C   -0.52226181   -2.40110101   -0.56421992
 C   -1.98119450   -2.36091841   -0.27720069
 C   -2.81049623   -2.73378728   -1.49766677
 H   +0.73223256   +0.71731789   -0.35830529
 H   +1.38736582   -1.57192656   -0.68134551
 H   -0.13329859   -3.35616814   -0.89684343
 H   -2.19319210   -3.06817138   +0.52668855
 H   -2.27504423   -1.38589241   +0.10269551
 H   -3.87110516   -2.74074901   -1.25909235
 H   -2.65046238   -2.02655237   -2.30799073
 H   -2.54505425   -3.72306853   -1.86545436
 H   -0.98450835   +0.31585590   -0.32568515
 H   +0.35320460   -0.76333770   -2.43109957
22
 * E =  +0.642 kcal/mol ; (6) 180_317_210_118
 C   +0.00000000   +0.00000000   +0.00000000
 C   +0.00000000   +0.00000000   +1.50013023
 O   +1.23173637   +0.00000000   +2.00241200
 O   -0.98591469   -0.04004934   +2.18344476
 C   +1.30928854   -0.01101534   +3.41695198
 H   +2.36468648   -0.00349524   +3.65612840
 H   +0.81766167   +0.86560950   +3.82658448
 H   +0.83222684   -0.90104900   +3.81503671
 C   +0.99747289   +0.93056653   -0.61821758
 C   +0.85968042   +1.54875689   -1.80101986
 C   -0.34976352   +1.60303387   -2.66618369
 C   -0.84422524   +3.02972042   -2.85749544
 H   -1.01703084   +0.20359220   -0.31218700
 H   +1.96379607   +0.95514604   -0.13524385
 H   +1.70502497   +2.12947323   -2.15027037
 H   -0.10172045   +1.17998755   -3.64161936
 H   -1.14843822   +0.98625973   -2.26181003
 H   -1.70377098   +3.05909299   -3.52256668
 H   -1.13515704   +3.46938392   -1.90673885
 H   -0.06717036   +3.65755430   -3.28887055
 H   +0.23425938   -1.02326159   -0.30464237
 H   +0.56504794   +2.45976523   +0.60966167
22
 * E =  +0.659 kcal/mol ; (7) 177_278_085_123
 C   +0.00000000   +0.00000000   +0.00000000
 C   +0.00000000   +0.00000000   +1.50162828
 O   +1.23805194   +0.00000000   +1.99164968
 O   -0.97910643   +0.02251048   +2.19566809
 C   +1.32977026   +0.05927027   +3.40416623
 H   +2.38731064   +0.04700045   +3.63380487
 H   +0.86843193   +0.96948627   +3.77437405
 H   +0.83120459   -0.79450981   +3.85212845
 C   +0.19479002   +1.40128043   -0.50945152
 C   +1.37867791   +2.00714148   -0.68823332
 C   +2.73117399   +1.39571903   -0.59921147
 C   +3.52652567   +1.58890720   -1.88142128
 H   -0.95808887   -0.38827138   -0.32637637
 H   -0.69959791   +2.00662915   -0.55350975
 H   +1.35690893   +3.04975805   -0.98296993
 H   +3.26731196   +1.86331788   +0.22924192
 H   +2.66411020   +0.34061879   -0.34789908
 H   +4.52573635   +1.17093121   -1.78727570
 H   +3.03496948   +1.10366051   -2.72123457
 H   +3.62930753   +2.64484148   -2.12386842
 H   +0.78624693   -0.65900035   -0.35551046
 H   -0.26784204   +0.89971648   -2.39217741
22
 * E =  +0.663 kcal/mol ; (8) 177_153_072_129
 C   +0.00000000   +0.00000000   +0.00000000
 C   +0.00000000   +0.00000000   +1.50433807
 O   +1.24078591   +0.00000000   +1.98649472
 O   -0.97331299   +0.03811012   +2.20493898
 C   +1.34156784   +0.07167130   +3.39815589
 H   +2.40067611   +0.06301705   +3.62026453
 H   +0.88105810   +0.98380427   +3.76471012
 H   +0.84735038   -0.77933626   +3.85591570
 C   -1.22418514   -0.62614130   -0.59103758
 C   -2.44495335   -0.07401370   -0.58760484
 C   -2.80365763   +1.29417771   -0.13163709
 C   -3.62494001   +2.05060306   -1.16307659
 H   +0.90407215   -0.48836556   -0.34903484
 H   -1.13473153   -1.66383550   -0.87904510
 H   -3.26217237   -0.66937627   -0.97700018
 H   -3.37219025   +1.20366454   +0.79549617
 H   -1.91041397   +1.85791562   +0.12946474
 H   -3.90906705   +3.03245562   -0.79263006
 H   -3.06629582   +2.18704027   -2.08617790
 H   -4.53850669   +1.51152095   -1.40681647
 H   +0.08894967   +1.04559576   -0.29653180
 H   -0.59338348   -0.27942745   -2.48521490
22
 * E =  +0.766 kcal/mol ; (9) 180_317_211_232
 C   +0.00000000   +0.00000000   +0.00000000
 C   +0.00000000   +0.00000000   +1.50023576
 O   +1.23208792   +0.00000000   +2.00173777
 O   -0.98546811   -0.04026832   +2.18408500
 C   +1.31076981   -0.01056435   +3.41622286
 H   +2.36632622   +0.00054261   +3.65455720
 H   +0.81648697   +0.86440488   +3.82621314
 H   +0.83724189   -0.90222331   +3.81491003
 C   +0.99163623   +0.93770884   -0.61752304
 C   +0.84565956   +1.56688537   -1.79316819
 C   -0.35898803   +1.60697188   -2.66568772
 C   -0.04076265   +1.20550711   -4.09814541
 H   -1.01830159   +0.19690482   -0.31149804
 H   +1.96005722   +0.96293439   -0.13884367
 H   +1.68909970   +2.15008698   -2.14311283
 H   -1.14842087   +0.97129505   -2.27312167
 H   -0.75449915   +2.62529596   -2.66463314
 H   -0.92139000   +1.28626597   -4.73043343
 H   +0.73174331   +1.84491617   -4.52063024
 H   +0.31681753   +0.17970430   -4.14629511
 H   +0.24288531   -1.02157138   -0.30366312
 H   +0.56231336   +2.46145769   +0.62493430
22
 * E =  +1.399 kcal/mol ; (10) 183_212_287_114
 C   +0.00000000   +0.00000000   +0.00000000
 C   +0.00000000   +0.00000000   +1.50270925
 O   +1.24131685   +0.00000000   +1.98181733
 O   -0.97091332   -0.04118298   +2.20669891
 C   +1.34456704   -0.05657334   +3.39403722
 H   +2.40402131   -0.04121981   +3.61406608
 H   +0.84742122   +0.79774437   +3.84219849
 H   +0.88828016   -0.96656557   +3.77105218
 C   -1.14886596   +0.71911413   -0.64638214
 C   -2.41552144   +0.27797527   -0.69430927
 C   -2.98327889   -0.91432657   -0.01211792
 C   -4.00947484   -0.52833926   +1.04347224
 H   -0.00297440   -1.05199826   -0.29303434
 H   -0.88143816   +1.55452318   -1.27685267
 H   -3.12148677   +0.87449734   -1.25992858
 H   -3.46151248   -1.54669398   -0.76334241
 H   -2.19524609   -1.50206425   +0.45135274
 H   -4.45312657   -1.41382556   +1.49263027
 H   -3.53342837   +0.05291696   +1.82712706
 H   -4.81298909   +0.06468612   +0.61037134
 H   +0.94755048   +0.40647307   -0.33734699
 H   -1.23142757   +2.21280649   +0.65409565
22
 * E =  +1.462 kcal/mol ; (11) 178_249_278_110
 C   +0.00000000   +0.00000000   +0.00000000
 C   +0.00000000   +0.00000000   +1.50182028
 O   +1.23010352   +0.00000000   +2.00290964
 O   -0.98781868   -0.00800312   +2.18594026
 C   +1.30658768   +0.04485380   +3.41721221
 H   +2.36183340   +0.03929438   +3.65679590
 H   +0.83384319   +0.94862397   +3.78870162
 H   +0.80978462   -0.81734616   +3.85059498
 C   -0.48719409   +1.30083432   -0.58647522
 C   -1.77823971   +1.63926659   -0.74016290
 C   -2.96395922   +0.91963356   -0.20630002
 C   -3.63932832   +1.70795224   +0.90810375
 H   -0.65172619   -0.81313640   -0.31266138
 H   +0.25996938   +1.90242862   -1.08313701
 H   -1.98241043   +2.57328435   -1.24995994
 H   -3.67587190   +0.76463606   -1.01913256
 H   -2.68090476   -0.05774966   +0.17484277
 H   -4.53050374   +1.19258899   +1.25786160
 H   -2.96138846   +1.82198302   +1.74898968
 H   -3.93602801   +2.69803585   +0.56700278
 H   +1.00267143   -0.21363832   -0.35316737
 H   +0.02555784   +2.47803084   +0.90996104
22
 * E =  +1.640 kcal/mol ; (12) 182_064_269_113
 C   +0.00000000   +0.00000000   +0.00000000
 C   +0.00000000   +0.00000000   +1.50164659
 O   +1.23831071   +0.00000000   +1.99059147
 O   -0.97902606   +0.02442671   +2.19488628
 C   +1.33017305   -0.04442458   +3.40309507
 H   +2.38811657   -0.04081874   +3.63227314
 H   +0.84047217   +0.81874343   +3.84282313
 H   +0.86035919   -0.94738282   +3.78068265
 C   +0.59237223   -1.23701803   -0.62276409
 C   +1.88278034   -1.39173006   -0.96457903
 C   +3.01864256   -0.49868905   -0.61561106
 C   +3.98848691   -1.18614158   +0.33590691
 H   +0.55182558   +0.87977420   -0.32636420
 H   -0.12005646   -1.95903934   -0.99492643
 H   +2.14617620   -2.30336950   -1.48751743
 H   +3.54881878   -0.22405985   -1.52941001
 H   +2.66092899   +0.42012995   -0.15875193
 H   +4.82765870   -0.53624837   +0.57226156
 H   +3.48407311   -1.44758438   +1.26237617
 H   +4.38624537   -2.10029697   -0.10020594
 H   -1.03189340   +0.11689569   -0.31087072
 H   +0.50942912   -2.42270263   +0.93574449
22
 * E =  +1.684 kcal/mol ; (13) 182_200_293_219
 C   +0.00000000   +0.00000000   +0.00000000
 C   +0.00000000   +0.00000000   +1.50276688
 O   +1.24656417   +0.00000000   +1.97219679
 O   -0.96507364   -0.03515900   +2.21355960
 C   +1.36189376   -0.05434689   +3.38314621
 H   +2.42318893   -0.03799593   +3.59434309
 H   +0.86815091   +0.79984023   +3.83539969
 H   +0.91009838   -0.96435102   +3.76573008
 C   -1.26993938   +0.45810237   -0.65074254
 C   -2.43985886   -0.19651373   -0.60367552
 C   -2.75083963   -1.42132979   +0.18005095
 C   -3.64338602   -2.38233415   -0.58564362
 H   +0.22687267   -1.02777339   -0.29419176
 H   -1.17499285   +1.27799315   -1.34726133
 H   -3.26214743   +0.21941308   -1.17389028
 H   -1.83177953   -1.91855781   +0.48553140
 H   -3.23741650   -1.12346463   +1.11043917
 H   -3.88363428   -3.25548307   +0.01574202
 H   -4.58115077   -1.90581868   -0.86562768
 H   -3.16285220   -2.72604221   -1.49921392
 H   +0.84526798   +0.59500243   -0.33178431
 H   -1.55996185   +2.01760155   +0.55970273
22
 * E =  +1.767 kcal/mol ; (14) 178_249_281_219
 C   +0.00000000   +0.00000000   +0.00000000
 C   +0.00000000   +0.00000000   +1.50209716
 O   +1.23062788   +0.00000000   +2.00296690
 O   -0.98781309   -0.00493218   +2.18555113
 C   +1.30660386   +0.04961357   +3.41706692
 H   +2.36178249   +0.04701678   +3.65710872
 H   +0.83169673   +0.95351659   +3.78549175
 H   +0.81154094   -0.81218737   +3.85329677
 C   -0.49823820   +1.29824368   -0.58002691
 C   -1.79180052   +1.64358226   -0.68864868
 C   -2.96555400   +0.91779426   -0.13707970
 C   -4.14971374   +0.93071120   -1.08815529
 H   -0.64911651   -0.81610371   -0.31247965
 H   +0.23486478   +1.89601378   -1.10138893
 H   -2.00933425   +2.57722715   -1.19422059
 H   -2.69484041   -0.10079528   +0.13077775
 H   -3.24852417   +1.38960865   +0.80661134
 H   -5.00779819   +0.42917902   -0.64812236
 H   -4.44914827   +1.94917759   -1.32898394
 H   -3.91047387   +0.42761754   -2.02258524
 H   +1.00330265   -0.20766690   -0.35460941
 H   +0.07579101   +2.48218568   +0.89520502
22
 * E =  +1.784 kcal/mol ; (15) 182_063_270_221
 C   +0.00000000   +0.00000000   +0.00000000
 C   +0.00000000   +0.00000000   +1.50206462
 O   +1.23718874   +0.00000000   +1.99241294
 O   -0.98042415   +0.02290663   +2.19362174
 C   +1.32650630   -0.04881974   +3.40489105
 H   +2.38376569   -0.04144962   +3.63636734
 H   +0.83161232   +0.81021732   +3.84691579
 H   +0.86043847   -0.95548466   +3.77823691
 C   +0.62235230   -1.22211915   -0.62006621
 C   +1.92247710   -1.35630041   -0.93196734
 C   +3.03272175   -0.43163770   -0.58404436
 C   +4.01464104   -0.25094239   -1.72899739
 H   +0.53374728   +0.89213451   -0.32490469
 H   -0.06993919   -1.95499695   -1.00842028
 H   +2.21254936   -2.26297668   -1.44978995
 H   +2.64458526   +0.53034713   -0.25727013
 H   +3.55731799   -0.83997782   +0.28347393
 H   +4.84012908   +0.39357064   -1.43778751
 H   +4.43369197   -1.20594996   -2.04028846
 H   +3.53037780   +0.19462243   -2.59498758
 H   -1.03409353   +0.09527870   -0.31065832
 H   +0.51633510   -2.42310706   +0.92901849
22
 * E =  +2.701 kcal/mol ; (16) 182_320_318_216
 C   +0.00000000   +0.00000000   +0.00000000
 C   +0.00000000   +0.00000000   +1.50130187
 O   +1.22069655   +0.00000000   +2.02054235
 O   -0.99622662   -0.04063337   +2.17328486
 C   +1.27799674   -0.04516373   +3.43459317
 H   +2.33025167   -0.05211516   +3.68738047
 H   +0.78754135   +0.82531015   +3.86022248
 H   +0.78825507   -0.93961131   +3.80638403
 C   +1.00726993   +0.85964900   -0.70571262
 C   +1.35837441   +2.11052125   -0.37457696
 C   +0.95051847   +2.87971434   +0.83400089
 C   +0.75552187   +4.35540249   +0.53106344
 H   -1.01136984   +0.26094783   -0.30480283
 H   +1.32508451   +0.49003624   -1.66998472
 H   +2.04689487   +2.61829074   -1.03947922
 H   +0.03517902   +2.47358544   +1.26122142
 H   +1.72227587   +2.76705377   +1.59985509
 H   +0.48565037   +4.90664661   +1.42806996
 H   +1.66738128   +4.79553490   +0.13191481
 H   -0.03271988   +4.50340547   -0.20348203
 H   +0.15144640   -1.03774387   -0.29628205
 H   +2.61034282   -0.22398897   -0.17445525
22
 * E =  +3.482 kcal/mol ; (17) 177_152_067_023
 C   +0.00000000   +0.00000000   +0.00000000
 C   +0.00000000   +0.00000000   +1.50308258
 O   +1.24020220   +0.00000000   +1.98625767
 O   -0.97370300   +0.03839085   +2.20423853
 C   +1.34092444   +0.06975086   +3.39801719
 H   +2.40012560   +0.06526970   +3.61977028
 H   +0.87666372   +0.97918464   +3.76648546
 H   +0.85069916   -0.78432992   +3.85433719
 C   -1.21689435   -0.64651010   -0.58867102
 C   -2.48944185   -0.22712264   -0.53152496
 C   -3.08306566   +1.04920739   -0.03750011
 C   -2.20449775   +2.28431950   +0.00303586
 H   +0.90259116   -0.49476309   -0.34444770
 H   -1.06368768   -1.65922121   -0.93468063
 H   -3.22059003   -0.92895496   -0.91343837
 H   -3.95127743   +1.25991534   -0.66289479
 H   -3.48320432   +0.85786422   +0.96085644
 H   -2.81522088   +3.16297049   +0.19563822
 H   -1.46541203   +2.22997344   +0.79606235
 H   -1.69491590   +2.43964408   -0.94610155
 H   +0.09716445   +1.04086697   -0.30094974
 H   -0.67103693   -0.13692988   -2.48105223
22
 * E =  +3.814 kcal/mol ; (18) 181_301_322_281
 C   +0.00000000   +0.00000000   +0.00000000
 C   +0.00000000   +0.00000000   +1.50001719
 O   +1.22867513   +0.00000000   +2.00357919
 O   -0.98717681   -0.03290256   +2.18485626
 C   +1.30615124   -0.01978048   +3.41701503
 H   +2.36168690   -0.01768340   +3.65528551
 H   +0.81870147   +0.85643729   +3.83521687
 H   +0.82465555   -0.90899235   +3.81165707
 C   +0.68239029   +1.14564360   -0.69303390
 C   +0.68410487   +2.43699341   -0.32949568
 C   +0.12887755   +3.03044362   +0.92448683
 C   -1.38592210   +3.18610872   +0.87552125
 H   -1.04201208   -0.05004641   -0.30863664
 H   +1.02819803   +0.91281811   -1.69021691
 H   +1.13239648   +3.12903080   -1.03020756
 H   +0.40213412   +2.42869519   +1.78942401
 H   +0.58640665   +4.00479437   +1.08430308
 H   -1.75441755   +3.65563744   +1.78453560
 H   -1.68723828   +3.80074742   +0.03035994
 H   -1.87388694   +2.21907520   +0.78328680
 H   +0.47488755   -0.92894464   -0.31189513
 H   +2.56180152   +0.55550376   -0.26853935
22
 * E =  +8.560 kcal/mol ; (19) 357_172_186_117
 C   +0.00000000   +0.00000000   +0.00000000
 C   +0.00000000   +0.00000000   +1.50728547
 O   +1.18878126   +0.00000000   +2.12189131
 O   -0.99362435   +0.03364505   +2.17023849
 C   +2.39516180   -0.06978237   +1.39824354
 H   +3.18390875   +0.04596160   +2.13105876
 H   +2.50904205   -1.03353691   +0.90685846
 H   +2.47500140   +0.72900825   +0.66463667
 C   -1.37441796   -0.19042901   -0.56303785
 C   -1.64680392   -0.33521849   -1.86737108
 C   -0.66098043   -0.50019426   -2.97018954
 C   -0.80702990   -1.84538377   -3.66765089
 H   +0.69084825   -0.75530747   -0.36790850
 H   -2.18177038   -0.03615340   +0.13742047
 H   -2.68931346   -0.40045273   -2.15306671
 H   -0.81073117   +0.29608277   -3.70184602
 H   +0.35545853   -0.38455305   -2.59812685
 H   -0.10146613   -1.93937933   -4.48960058
 H   -0.63247528   -2.66383357   -2.97346558
 H   -1.80929235   -1.96597742   -4.07323209
 H   +0.41087234   +0.96132669   -0.31995532
 H   -1.47957100   -2.08398453   +0.07144063
22
 * E =  +8.626 kcal/mol ; (20) 357_172_184_227
 C   +0.00000000   +0.00000000   +0.00000000
 C   +0.00000000   +0.00000000   +1.50707246
 O   +1.18892319   +0.00000000   +2.12131262
 O   -0.99351654   +0.03150592   +2.17036189
 C   +2.39460914   -0.06956942   +1.39643287
 H   +3.18415990   +0.04820909   +2.12803216
 H   +2.50850652   -1.03390130   +0.90620451
 H   +2.47234890   +0.72802271   +0.66129957
 C   -1.37519028   -0.18514754   -0.56323560
 C   -1.64773538   -0.30015143   -1.86988526
 C   -0.66052728   -0.40168853   -2.97932070
 C   -0.98847016   +0.53294229   -4.13285086
 H   +0.68714889   -0.75953423   -0.36615422
 H   -2.18220678   -0.06009637   +0.14326760
 H   -2.68958103   -0.36855222   -2.15764138
 H   +0.34601457   -0.20037278   -2.61648373
 H   -0.65253006   -1.43024534   -3.34929170
 H   -0.27831935   +0.41459494   -4.94741568
 H   -1.98244062   +0.33061053   -4.52641044
 H   -0.96612197   +1.57203335   -3.81296873
 H   +0.41579733   +0.95871674   -0.32178863
 H   -1.46680705   -2.10159165   +0.02921524
22
 * E =  +8.659 kcal/mol ; (21) 358_170_071_239
 C   +0.00000000   +0.00000000   +0.00000000
 C   +0.00000000   +0.00000000   +1.51225707
 O   +1.19256256   +0.00000000   +2.12184311
 O   -0.98906302   +0.03432331   +2.18157207
 C   +2.39833442   -0.05182703   +1.39449836
 H   +3.18728349   +0.07193209   +2.12583281
 H   +2.52350024   -1.01244924   +0.89984769
 H   +2.46543338   +0.74907058   +0.66231390
 C   -1.35366886   -0.24609351   -0.58868138
 C   -2.36781194   +0.62701539   -0.56249497
 C   -2.33326763   +2.01597965   -0.03504331
 C   -3.34903136   +2.21242285   +1.08102152
 H   +0.70582655   -0.74116356   -0.36665386
 H   -1.55650011   -1.25770299   -0.90837554
 H   -3.31974919   +0.29828338   -0.96111211
 H   -1.34020591   +2.26365684   +0.33395122
 H   -2.55086819   +2.71097858   -0.84930287
 H   -3.33887833   +3.23975974   +1.43698231
 H   -4.35651514   +1.98972897   +0.73472005
 H   -3.11981970   +1.55441103   +1.91399732
 H   +0.39842252   +0.96417449   -0.31883570
 H   -0.64350884   -0.03881427   -2.49507286
22
 * E =  +9.024 kcal/mol ; (22) 004_082_072_128
 C   +0.00000000   +0.00000000   +0.00000000
 C   +0.00000000   +0.00000000   +1.51148773
 O   +1.17066323   +0.00000000   +2.15663777
 O   -1.01256701   -0.02942129   +2.14868775
 C   +2.39402160   +0.09384459   +1.46397839
 H   +3.16595794   -0.02538131   +2.21405188
 H   +2.49973314   -0.69267051   +0.72193461
 H   +2.50815070   +1.06715710   +0.99214483
 C   +0.19096193   -1.39452085   -0.53667506
 C   -0.73872878   -2.36182190   -0.48448977
 C   -2.15137708   -2.22659974   -0.04284669
 C   -3.12417867   -2.77905706   -1.07280495
 H   +0.76328334   +0.66047297   -0.40093170
 H   +1.19450964   -1.67406939   -0.82475524
 H   -0.44854047   -3.34274187   -0.84225123
 H   -2.27092154   -2.77310703   +0.89505167
 H   -2.38567100   -1.19286768   +0.19602794
 H   -4.14807170   -2.70791829   -0.71516440
 H   -3.05600939   -2.23071428   -2.00948639
 H   -2.91884102   -3.82640137   -1.28634953
 H   -0.96584725   +0.39583485   -0.29370915
 H   +0.07071176   -0.77890825   -2.42950960
22
 * E =  +9.065 kcal/mol ; (23) 002_184_109_118
 C   +0.00000000   +0.00000000   +0.00000000
 C   +0.00000000   +0.00000000   +1.50939936
 O   +1.18986853   +0.00000000   +2.12381071
 O   -0.99488858   -0.02423360   +2.17050048
 C   +2.39458101   +0.05118372   +1.39548577
 H   +3.18583228   -0.03254469   +2.12991403
 H   +2.47721851   -0.77300568   +0.69113329
 H   +2.50198254   +0.99645789   +0.86792189
 C   -1.38994256   +0.09766909   -0.53752769
 C   -1.92338958   +1.16089186   -1.15807617
 C   -1.23593591   +2.39408050   -1.62632719
 C   -1.33012069   +2.55293421   -3.13728644
 H   +0.46915247   -0.92836632   -0.32945308
 H   -2.05670561   -0.69018730   -0.21953296
 H   -2.97554901   +1.10003622   -1.40816043
 H   -1.70469509   +3.25614140   -1.14854762
 H   -0.19256458   +2.40710926   -1.32010393
 H   -0.85814119   +3.47651158   -3.46340915
 H   -0.84406502   +1.72379572   -3.64571812
 H   -2.36810218   +2.57657347   -3.46241057
 H   +0.63621232   +0.80056827   -0.36771394
 H   -1.05206225   -1.04326447   -2.12450706
22
 * E =  +9.077 kcal/mol ; (24) 357_170_070_135
 C   +0.00000000   +0.00000000   +0.00000000
 C   +0.00000000   +0.00000000   +1.51260565
 O   +1.19322479   +0.00000000   +2.12201196
 O   -0.98888791   +0.03466164   +2.18153037
 C   +2.39857963   -0.05266750   +1.39452510
 H   +3.18796834   +0.06626119   +2.12624188
 H   +2.52154398   -1.01171811   +0.89621471
 H   +2.46833553   +0.75083190   +0.66533416
 C   -1.35454111   -0.24107737   -0.58717819
 C   -2.37071793   +0.62884798   -0.53510152
 C   -2.32618934   +2.01006863   +0.01088881
 C   -3.01120677   +3.02000692   -0.89403428
 H   +0.70530396   -0.74081188   -0.36833204
 H   -1.55830035   -1.24833082   -0.91952347
 H   -3.32667857   +0.30581720   -0.92891127
 H   -2.81348981   +1.99821717   +0.98775682
 H   -1.29830566   +2.31381303   +0.20236497
 H   -2.99889094   +4.01282200   -0.45150138
 H   -2.52026578   +3.07675365   -1.86290792
 H   -4.05068075   +2.74729572   -1.06591327
 H   +0.39828201   +0.96540284   -0.31683988
 H   -0.65272096   -0.00890519   -2.49142320
22
 * E =  +9.629 kcal/mol ; (25) 000_271_118_221
 C   +0.00000000   +0.00000000   +0.00000000
 C   +0.00000000   +0.00000000   +1.51222344
 O   +1.16747894   +0.00000000   +2.16161731
 O   -1.01580176   +0.02912228   +2.14313763
 C   +2.39443425   -0.00208240   +1.46848194
 H   +3.15938235   +0.12006137   +2.22536004
 H   +2.55710524   -0.94664681   +0.95325736
 H   +2.45191596   +0.82255821   +0.76347251
 C   +0.02649474   +1.41582997   -0.50675338
 C   +0.98907569   +1.98176158   -1.25788625
 C   +2.11909251   +1.31237890   -1.95739839
 C   +3.41991823   +2.08904831   -1.83435399
 H   -0.93385540   -0.47504673   -0.28258760
 H   -0.70974494   +2.06573020   -0.05321155
 H   +0.88700487   +3.04149380   -1.45845982
 H   +2.25728300   +0.29371883   -1.59971991
 H   +1.85953069   +1.22440554   -3.01560648
 H   +4.21861066   +1.60515842   -2.39029619
 H   +3.30814938   +3.09869138   -2.22373692
 H   +3.73596741   +2.17285473   -0.79648906
 H   +0.81380933   -0.58705289   -0.41223452
 H   -1.29500584   +1.17848218   -1.88710475
22
 * E =  +9.753 kcal/mol ; (26) 003_268_277_104
 C   +0.00000000   +0.00000000   +0.00000000
 C   +0.00000000   +0.00000000   +1.51191150
 O   +1.16755925   +0.00000000   +2.15879371
 O   -1.01681804   -0.00843829   +2.14362158
 C   +2.39126203   +0.07232448   +1.46391066
 H   +3.14773082   +0.24912346   +2.21845647
 H   +2.61162742   -0.86286646   +0.95360291
 H   +2.39985521   +0.89835961   +0.75661467
 C   -0.05900279   +1.38529150   -0.59503781
 C   -1.19187940   +2.08976100   -0.76210796
 C   -2.53122501   +1.76756733   -0.20460225
 C   -2.86738678   +2.66932594   +0.97742043
 H   -0.88697413   -0.55753995   -0.28397271
 H   +0.83588790   +1.73499633   -1.09025090
 H   -1.10735335   +3.03713931   -1.28038277
 H   -3.28072925   +1.90156281   -0.98570528
 H   -2.57713839   +0.73245740   +0.12330205
 H   -3.86815296   +2.45860755   +1.34559734
 H   -2.16690819   +2.49985278   +1.79043619
 H   -2.82486176   +3.72032365   +0.69845632
 H   +0.85997679   -0.53066775   -0.39642273
 H   +0.68092524   +2.43430435   +0.90510659
22
 * E =  +9.990 kcal/mol ; (27) 004_186_295_116
 C   +0.00000000   +0.00000000   +0.00000000
 C   +0.00000000   +0.00000000   +1.51030242
 O   +1.19768432   +0.00000000   +2.11203334
 O   -0.98219481   -0.03035498   +2.18841263
 C   +2.40021338   +0.07647404   +1.38297631
 H   +3.19285649   -0.02501434   +2.11380508
 H   +2.48632345   -0.72670216   +0.65500372
 H   +2.50293535   +1.03723242   +0.88329547
 C   -1.34149116   +0.14904301   -0.65270063
 C   -2.34758672   -0.73417520   -0.57143360
 C   -2.41661217   -1.95511444   +0.27388681
 C   -3.52235570   -1.86277200   +1.31527776
 H   +0.47004066   -0.93430379   -0.31724925
 H   -1.41453221   +0.93066999   -1.39418765
 H   -3.23206985   -0.52442676   -1.16103472
 H   -2.60662333   -2.81192648   -0.37650448
 H   -1.46663036   -2.13750734   +0.77017799
 H   -3.58996013   -2.78341989   +1.88993007
 H   -3.32101345   -1.04371520   +1.99857869
 H   -4.48836016   -1.69167290   +0.84365730
 H   +0.66271261   +0.79037266   -0.34543066
 H   -1.91375999   +1.69094379   +0.46753646
22
 * E = +10.268 kcal/mol ; (28) 004_185_297_217
 C   +0.00000000   +0.00000000   +0.00000000
 C   +0.00000000   +0.00000000   +1.51037070
 O   +1.19811455   +0.00000000   +2.11290086
 O   -0.98286185   -0.03074590   +2.18701503
 C   +2.39990511   +0.08339399   +1.38381101
 H   +3.19341549   -0.00844904   +2.11500485
 H   +2.49321403   -0.72216934   +0.65923609
 H   +2.49527159   +1.04269197   +0.87980524
 C   -1.34611236   +0.12872874   -0.64497351
 C   -2.34501007   -0.75738778   -0.52271046
 C   -2.37700795   -1.95806728   +0.35399093
 C   -3.08863627   -3.12905291   -0.30033530
 H   +0.47772126   -0.93105520   -0.31732803
 H   -1.43519084   +0.89504533   -1.40032171
 H   -3.24290472   -0.57086319   -1.09976301
 H   -1.36700521   -2.24588993   +0.64256951
 H   -2.87624888   -1.69152992   +1.28719373
 H   -3.12568231   -3.98578676   +0.36761780
 H   -4.11298258   -2.86765893   -0.55943338
 H   -2.58598168   -3.43774812   -1.21460980
 H   +0.65322113   +0.79667170   -0.34879160
 H   -1.91909890   +1.68926435   +0.46276894
22
 * E = +10.944 kcal/mol ; (29) 346_289_184_115
 C   +0.00000000   +0.00000000   +0.00000000
 C   +0.00000000   +0.00000000   +1.50500667
 O   +1.18806100   +0.00000000   +2.12636347
 O   -0.99830555   +0.03847398   +2.16005560
 C   +2.38030584   -0.29057813   +1.43091257
 H   +3.18077919   -0.14101249   +2.14477327
 H   +2.39399876   -1.32637904   +1.09801920
 H   +2.53296625   +0.36882606   +0.58052779
 C   +0.46189392   +1.32483952   -0.55774659
 C   +0.48007480   +1.62444066   -1.86576355
 C   -0.10197159   +0.80553655   -2.96259980
 C   -1.24899643   +1.52499327   -3.65920315
 H   -1.01674004   -0.22150582   -0.30420694
 H   +0.96036609   +1.99775208   +0.12719853
 H   +0.89061423   +2.58440572   -2.15323560
 H   +0.67724558   +0.58759145   -3.69531876
 H   -0.44445481   -0.15476413   -2.58237882
 H   -1.64567241   +0.92639845   -4.47537022
 H   -2.05841152   +1.72965201   -2.96300357
 H   -0.91915659   +2.47585479   -4.07230420
 H   +0.63927284   -0.80124913   -0.37220680
 H   -1.13977315   +2.29372969   +0.06794304
