22
 * E =  +0.000 kcal/mol ; (1) 178_165_212_117_178
 C   +0.00000000   +0.00000000   +0.00000000
 O   +0.00000000   +0.00000000   +1.41728363
 C   +1.20198356   +0.00000000   +1.98729995
 C   +1.09318972   +0.05480733   +3.48274138
 C   +2.37219021   -0.30246744   +4.15996614
 C   +2.49551456   -0.90514462   +5.33676710
 C   +1.39792269   -1.37667503   +6.23657087
 C   +1.44070875   -2.86943553   +6.39697116
 O   +2.22461724   -0.01311138   +1.35917283
 H   +0.42492854   -3.19105594   +7.26349069
 H   +0.50503486   +0.88320501   -0.37836198
 H   +2.31136479   -3.26320658   +6.91004365
 H   +1.18622936   -3.44160176   +5.51200001
 H   +0.42506211   -1.07167179   +5.85809296
 H   +1.51115464   -0.90534842   +7.21386328
 H   +3.49884550   -1.09795250   +5.69544358
 H   +3.26536242   -0.03041290   +3.61581197
 H   +0.80318636   +1.08162975   +3.72141259
 H   +0.25687450   -0.56696176   +3.78849673
 H   +0.50577848   -0.88286636   -0.37771460
 H   -1.04092824   -0.00050795   -0.29573957
 H   -0.25281129   -3.35794835   +7.83775562
22
 * E =  +0.172 kcal/mol ; (2) 178_165_211_126_062
 C   +0.00000000   +0.00000000   +0.00000000
 O   +0.00000000   +0.00000000   +1.41732364
 C   +1.20258757   +0.00000000   +1.98672055
 C   +1.09499530   +0.05532290   +3.48216190
 C   +2.37214750   -0.30914859   +4.15950066
 C   +2.49510431   -0.89895002   +5.34204440
 C   +1.40041366   -1.33911604   +6.25662415
 C   +1.51697096   -2.78750900   +6.63192579
 O   +2.22446828   -0.01368846   +1.35755110
 H   +2.71445877   -2.90389849   +7.29346145
 H   +0.50349057   +0.88405258   -0.37844062
 H   +1.64408536   -3.47912352   +5.80686504
 H   +0.81654757   -3.14077046   +7.37999898
 H   +0.42158669   -1.15306839   +5.81105119
 H   +1.42935571   -0.73483653   +7.16588939
 H   +3.49759350   -1.09436623   +5.70196243
 H   +3.26561176   -0.05134315   +3.60894191
 H   +0.81076629   +1.08365149   +3.72108891
 H   +0.25464091   -0.56119363   +3.78799697
 H   +0.50726555   -0.88197797   -0.37780562
 H   -1.04093108   -0.00220064   -0.29580909
 H   +3.50419627   -2.92860457   +7.73846038
22
 * E =  +0.225 kcal/mol ; (3) 177_146_078_245_182
 C   +0.00000000   +0.00000000   +0.00000000
 O   +0.00000000   +0.00000000   +1.41748989
 C   +1.20185647   +0.00000000   +1.98736089
 C   +1.10227656   +0.07165356   +3.48648932
 C   +2.17942279   -0.68410207   +4.19746455
 C   +3.43182224   -0.27653663   +4.36596647
 C   +4.03707051   +0.99182370   +3.86113013
 C   +5.10282267   +0.69232140   +2.84600411
 O   +2.22385819   -0.01448144   +1.35811246
 H   +5.62403857   +1.90848982   +2.47886683
 H   +0.50388002   +0.88394637   -0.37817634
 H   +4.73338850   +0.29072717   +1.91081238
 H   +5.98082547   +0.17829959   +3.22269123
 H   +4.46988593   +1.54484349   +4.69639228
 H   +3.27823098   +1.62455125   +3.40688079
 H   +4.10716566   -0.93484059   +4.89839689
 H   +1.89665391   -1.65025444   +4.59147293
 H   +1.14411743   +1.13386302   +3.73195124
 H   +0.11656081   -0.27146506   +3.78344495
 H   +0.50740958   -0.88215370   -0.37716123
 H   -1.04090657   -0.00205410   -0.29580899
 H   +5.94316623   +2.72960266   +2.27605481
22
 * E =  +0.256 kcal/mol ; (4) 182_095_084_249_185
 C   +0.00000000   +0.00000000   +0.00000000
 O   +0.00000000   +0.00000000   +1.41742838
 C   +1.20034658   +0.00000000   +1.98764885
 C   +1.11804968   -0.05756053   +3.48553034
 C   +1.24515782   -1.47909994   +3.95285235
 C   +2.38880774   -2.12580958   +4.15295387
 C   +3.77160205   -1.60273788   +3.93821300
 C   +4.41374415   -2.29685870   +2.77039092
 O   +2.22536847   +0.01394449   +1.36062850
 H   +5.70239069   -1.83215385   +2.71960753
 H   +0.50900570   +0.88117176   -0.37735501
 H   +4.01982139   -2.01622938   +1.80129657
 H   +4.56553995   -3.36530887   +2.88165521
 H   +4.36461159   -1.77413353   +4.83765780
 H   +3.75802294   -0.53233867   +3.75063148
 H   +2.32762015   -3.15689057   +4.47899147
 H   +0.31682209   -2.00923250   +4.11192229
 H   +1.92540809   +0.55567093   +3.87352139
 H   +0.17195363   +0.36226105   +3.81128911
 H   +0.50258322   -0.88514133   -0.37701055
 H   -1.04079740   +0.00360595   -0.29603352
 H   +6.54732343   -1.50936536   +2.73241599
22
 * E =  +0.423 kcal/mol ; (5) 182_078_267_114_179
 C   +0.00000000   +0.00000000   +0.00000000
 O   +0.00000000   +0.00000000   +1.41701685
 C   +1.20474636   +0.00000000   +1.98562944
 C   +1.10326161   -0.04021219   +3.48336092
 C   +0.78633839   -1.42695280   +3.95997356
 C   -0.42648514   -1.91925943   +4.18836407
 C   -1.73641175   -1.22783082   +3.99355495
 C   -2.51682931   -1.90022369   +2.90025564
 O   +2.22604530   +0.01346128   +1.35564413
 H   -3.70695487   -1.22230258   +2.80638504
 H   +0.51509802   +0.87719832   -0.37846361
 H   -2.84875326   -2.91167240   +3.10847254
 H   -2.09827378   -1.78832365   +1.90729191
 H   -1.58943733   -0.18179603   +3.73798679
 H   -2.30674276   -1.26235162   +4.92266106
 H   -0.49143649   -2.94633442   +4.52600846
 H   +1.63957653   -2.07374672   +4.10952776
 H   +2.06009470   +0.28432435   +3.87782438
 H   +0.33903695   +0.66549403   +3.79635724
 H   +0.49572708   -0.88887276   -0.37758135
 H   -1.04076513   +0.01235267   -0.29712425
 H   -4.47943738   -0.75366630   +2.77995637
22
 * E =  +0.497 kcal/mol ; (6) 180_306_242_247_182
 C   +0.00000000   +0.00000000   +0.00000000
 O   +0.00000000   +0.00000000   +1.41692636
 C   +1.20220946   +0.00000000   +1.98754524
 C   +1.10679757   +0.00431527   +3.48632299
 C   +0.26364322   +1.12476484   +4.00351229
 C   +0.65961156   +2.11169195   +4.80044277
 C   +2.01934717   +2.33759275   +5.37963813
 C   +1.99833869   +2.15317351   +6.87055724
 O   +2.22503637   -0.01398701   +1.36010470
 H   +3.26752282   +2.43502328   +7.31013689
 H   +0.51006991   +0.88069135   -0.37718516
 H   +1.85016991   +1.13523368   +7.21289461
 H   +1.40184359   +2.86912828   +7.42560234
 H   +2.33814340   +3.35382558   +5.14597300
 H   +2.75332256   +1.67215502   +4.93306625
 H   -0.08787263   +2.83850638   +5.09392007
 H   -0.76700067   +1.11002255   +3.67765724
 H   +0.65748139   -0.94656106   +3.77813810
 H   +2.11894661   +0.02588038   +3.87006184
 H   +0.50113955   -0.88543221   -0.37826097
 H   -1.04075330   +0.00543893   -0.29643313
 H   +4.11402029   +2.63235316   +7.55911030
22
 * E =  +0.538 kcal/mol ; (7) 177_144_078_243_300
 C   +0.00000000   +0.00000000   +0.00000000
 O   +0.00000000   +0.00000000   +1.41733069
 C   +1.20213515   +0.00000000   +1.98721245
 C   +1.10411435   +0.06497805   +3.48695532
 C   +2.16322897   -0.72542300   +4.18840717
 C   +3.42592901   -0.35439203   +4.35589006
 C   +4.06019650   +0.90701492   +3.87528931
 C   +5.16154989   +0.63737400   +2.89219210
 O   +2.22412240   -0.01102663   +1.35786362
 H   +6.08848743   -0.13065589   +3.56707134
 H   +0.50204060   +0.88496062   -0.37833484
 H   +5.75815872   +1.49662115   +2.60738111
 H   +4.88177478   +0.00733813   +2.05694836
 H   +4.46346916   +1.45715737   +4.72784865
 H   +3.31878274   +1.55328834   +3.40287589
 H   +4.08824286   -1.03682106   +4.87394004
 H   +1.85622446   -1.68903582   +4.57025149
 H   +1.17505977   +1.12370298   +3.74029252
 H   +0.11043394   -0.25503239   +3.78285792
 H   +0.50939601   -0.88100948   -0.37717917
 H   -1.04087307   -0.00425069   -0.29594171
 H   +6.67579748   -0.61469003   +4.05533951
22
 * E =  +0.549 kcal/mol ; (8) 180_305_242_257_067
 C   +0.00000000   +0.00000000   +0.00000000
 O   +0.00000000   +0.00000000   +1.41673208
 C   +1.20264857   +0.00000000   +1.98734269
 C   +1.10748398   +0.00801170   +3.48538248
 C   +0.28151882   +1.14273010   +3.99978851
 C   +0.70070918   +2.12205959   +4.79217375
 C   +2.07488973   +2.31231355   +5.34646654
 C   +2.16885537   +1.90600113   +6.78931600
 O   +2.22479112   -0.01327223   +1.35829805
 H   +1.97310379   +0.54587655   +6.78469611
 H   +0.51147058   +0.87972926   -0.37764224
 H   +1.36534153   +2.24782124   +7.43240445
 H   +3.14751790   +2.00244051   +7.24581480
 H   +2.34584853   +3.36778025   +5.25647392
 H   +2.81513001   +1.76802276   +4.76390766
 H   -0.03220891   +2.85619917   +5.10338216
 H   -0.75301260   +1.13825262   +3.68638579
 H   +0.64244565   -0.93260957   +3.78476672
 H   +2.11744068   +0.01347128   +3.87552451
 H   +0.49932636   -0.88634239   -0.37857834
 H   -1.04078998   +0.00718512   -0.29644719
 H   +1.84898647   -0.34776993   +6.71648127
22
 * E =  +0.553 kcal/mol ; (9) 180_056_119_237_299
 C   +0.00000000   +0.00000000   +0.00000000
 O   +0.00000000   +0.00000000   +1.41691199
 C   +1.20181969   +0.00000000   +1.98799938
 C   +1.10559973   -0.00814893   +3.48648163
 C   +0.29320683   -1.15532260   +3.99596635
 C   +0.70726130   -2.12702987   +4.80080834
 C   +2.06781329   -2.32613207   +5.38135842
 C   +2.64424393   -3.66490386   +5.02271971
 O   +2.22503639   +0.01359893   +1.36075319
 H   +1.78565284   -4.59593322   +5.55763699
 H   +0.50481482   +0.88332633   -0.37826112
 H   +3.57835093   -3.92158467   +5.50888886
 H   +2.62988411   -3.91553483   +3.96825104
 H   +2.00704594   -2.24671739   +6.46859319
 H   +2.75215968   -1.54045559   +5.05991149
 H   -0.01692574   -2.88435248   +5.07539232
 H   -0.73285068   -1.17321299   +3.65601079
 H   +2.11788066   -0.00430727   +3.87028410
 H   +0.62982880   +0.92850207   +3.78166293
 H   +0.50618433   -0.88288247   -0.37735479
 H   -1.04077538   -0.00118176   -0.29637708
 H   +1.20061481   -5.17062243   +5.94302508
22
 * E =  +0.554 kcal/mol ; (10) 176_270_278_113_059
 C   +0.00000000   +0.00000000   +0.00000000
 O   +0.00000000   +0.00000000   +1.41732716
 C   +1.20106313   +0.00000000   +1.98640095
 C   +1.11914205   +0.08689413   +3.48220373
 C   +1.13673650   +1.52936024   +3.90528228
 C   +2.22512266   +2.27967871   +4.03158255
 C   +3.63602627   +1.86529052   +3.77760613
 C   +4.22670354   +2.58427536   +2.59940249
 O   +2.22541565   -0.02724435   +1.35838524
 H   +4.16245643   +3.92978833   +2.90296925
 H   +0.50494140   +0.88390301   -0.37680555
 H   +3.65391346   +2.51385429   +1.68231435
 H   +5.29089284   +2.44266898   +2.44959823
 H   +3.69666336   +0.79206740   +3.59381821
 H   +4.23742509   +2.07271018   +4.66427314
 H   +2.09088257   +3.31317139   +4.32598107
 H   +0.17220987   +1.98076736   +4.08864524
 H   +0.20775356   -0.39326241   +3.82339101
 H   +1.97153625   -0.45195447   +3.88368974
 H   +0.50607196   -0.88255899   -0.37803486
 H   -1.04082092   -0.00025851   -0.29604789
 H   +4.11576418   +4.79723587   +3.15182321
22
 * E =  +0.600 kcal/mol ; (11) 180_055_116_121_061
 C   +0.00000000   +0.00000000   +0.00000000
 O   +0.00000000   +0.00000000   +1.41692672
 C   +1.20187914   +0.00000000   +1.98783358
 C   +1.10520791   -0.00754403   +3.48644941
 C   +0.27474811   -1.14077162   +3.99801331
 C   +0.68919764   -2.15051003   +4.75445625
 C   +2.06352859   -2.40539036   +5.27762055
 C   +2.09887799   -2.46638719   +6.77712091
 O   +2.22509411   +0.01432816   +1.36071663
 H   +1.28266837   -3.51422358   +7.12700629
 H   +0.49992566   +0.88604660   -0.37844954
 H   +1.63561620   -1.63358010   +7.29393014
 H   +3.04376072   -2.76695595   +7.21506581
 H   +2.76625744   -1.65012439   +4.92439910
 H   +2.42342077   -3.35467021   +4.87655233
 H   -0.05007414   -2.88657335   +5.04606039
 H   -0.76421215   -1.11582335   +3.70050365
 H   +2.11751419   -0.01915470   +3.87028341
 H   +0.64397574   +0.93651581   +3.78066003
 H   +0.51090460   -0.88017283   -0.37725183
 H   -1.04078195   -0.00668060   -0.29630610
 H   +0.74834830   -4.22392655   +7.30880074
22
 * E =  +0.667 kcal/mol ; (12) 183_082_265_246_182
 C   +0.00000000   +0.00000000   +0.00000000
 O   +0.00000000   +0.00000000   +1.41668632
 C   +1.20207062   +0.00000000   +1.98815705
 C   +1.09561561   -0.07266229   +3.48450215
 C   +0.88572211   -1.49155456   +3.92411420
 C   -0.28487778   -2.06806601   +4.17382162
 C   -1.63845521   -1.44058387   +4.08766764
 C   -2.27920386   -1.36389288   +5.44405474
 O   +2.22640310   +0.02781297   +1.36318861
 H   -3.52611343   -0.82585566   +5.24831558
 H   +0.50868295   +0.88093425   -0.37865665
 H   -1.82658365   -0.66259232   +6.13601624
 H   -2.51297044   -2.31473824   +5.91074479
 H   -2.26162846   -2.04312215   +3.42572626
 H   -1.57999946   -0.45409190   +3.63561537
 H   -0.27337216   -3.10415472   +4.48916293
 H   +1.78342458   -2.08632715   +4.01964717
 H   +2.02418854   +0.31251166   +3.89271225
 H   +0.27782694   +0.56364477   +3.80944215
 H   +0.50233148   -0.88542998   -0.37686599
 H   -1.04072670   +0.00332568   -0.29667351
 H   -4.34024251   -0.47198379   +5.07594152
22
 * E =  +0.673 kcal/mol ; (13) 183_083_083_124_061
 C   +0.00000000   +0.00000000   +0.00000000
 O   +0.00000000   +0.00000000   +1.41709116
 C   +1.20131240   +0.00000000   +1.98657086
 C   +1.11382911   -0.08213612   +3.48230766
 C   +0.95074137   -1.51240764   +3.91396946
 C   +1.93941929   -2.38615577   +4.06478049
 C   +3.39364737   -2.14224965   +3.83919509
 C   +4.22264369   -2.46882216   +5.04646139
 O   +2.22576005   +0.02851767   +1.35956971
 H   +4.01777434   -3.80416490   +5.29222101
 H   +0.50088748   +0.88552221   -0.37817455
 H   +3.90119927   -2.01587332   +5.97767701
 H   +5.29658367   -2.43142931   +4.90504083
 H   +3.57052843   -1.11368171   +3.52236995
 H   +3.72512267   -2.75830826   +3.00109293
 H   +1.68105948   -3.38828309   +4.38459811
 H   -0.06323629   -1.84270333   +4.08786756
 H   +2.02542794   +0.35026219   +3.88145440
 H   +0.26786919   +0.50681855   +3.82348801
 H   +0.51016281   -0.88084970   -0.37694856
 H   -1.04079860   -0.00549313   -0.29618496
 H   +3.86320965   -4.69086006   +5.40794130
22
 * E =  +0.688 kcal/mol ; (14) 178_284_092_242_299
 C   +0.00000000   +0.00000000   +0.00000000
 O   +0.00000000   +0.00000000   +1.41672338
 C   +1.20458334   +0.00000000   +1.98584742
 C   +1.10178435   +0.04668089   +3.48332598
 C   +0.73476126   +1.42451836   +3.95131320
 C   -0.49490785   +1.87773015   +4.16357661
 C   -1.77608784   +1.13751757   +3.97289716
 C   -2.64050373   +1.78201592   +2.92862432
 O   +2.22602780   -0.01878141   +1.35622794
 H   -2.91245028   +3.04935306   +3.39190407
 H   +0.50248596   +0.88506661   -0.37755671
 H   -3.63713013   +1.36929950   +2.82081880
 H   -2.15182984   +1.97751131   +1.98120627
 H   -2.32078192   +1.10591126   +4.91833344
 H   -1.58597220   +0.10374795   +3.68292619
 H   -0.60072800   +2.90471200   +4.49096021
 H   +1.56498113   +2.10002481   +4.10332947
 H   +0.36250527   -0.68394501   +3.80011592
 H   +2.06863119   -0.24323976   +3.88002789
 H   +0.50821037   -0.88106634   -0.37899341
 H   -1.04082124   -0.00356834   -0.29700601
 H   -3.07854544   +3.86636050   +3.74491455
22
 * E =  +0.713 kcal/mol ; (15) 183_079_087_113_177
 C   +0.00000000   +0.00000000   +0.00000000
 O   +0.00000000   +0.00000000   +1.41704648
 C   +1.20159532   +0.00000000   +1.98676165
 C   +1.11144384   -0.08095926   +3.48254805
 C   +0.85455551   -1.49710916   +3.91194306
 C   +1.79126572   -2.41552084   +4.12329794
 C   +3.26933945   -2.23523697   +3.99041254
 C   +3.94111104   -2.35112572   +5.32909746
 O   +2.22609681   +0.02836394   +1.36054996
 H   +5.28829894   -2.23447908   +5.09658832
 H   +0.50159900   +0.88507145   -0.37830374
 H   +3.87751267   -3.32300331   +5.80678044
 H   +3.75126889   -1.53706887   +6.01967067
 H   +3.50279422   -1.28191466   +3.52317757
 H   +3.65702375   -3.00476698   +3.32206084
 H   +1.46686395   -3.39932063   +4.43930617
 H   -0.18239543   -1.77672163   +4.03105100
 H   +2.04788280   +0.29262037   +3.88212190
 H   +0.30408440   +0.56035209   +3.82453451
 H   +0.50934725   -0.88127042   -0.37708360
 H   -1.04080391   -0.00456903   -0.29622722
 H   +6.16835814   -2.15810195   +4.90450416
22
 * E =  +0.730 kcal/mol ; (16) 183_084_262_252_067
 C   +0.00000000   +0.00000000   +0.00000000
 O   +0.00000000   +0.00000000   +1.41664622
 C   +1.20433452   +0.00000000   +1.98548086
 C   +1.10593776   -0.07566551   +3.48132160
 C   +0.96759621   -1.50328593   +3.92083143
 C   -0.16918492   -2.11687416   +4.22598725
 C   -1.54040820   -1.52739109   +4.19752930
 C   -2.09308260   -1.29554261   +5.57426989
 O   +2.22569994   +0.02755964   +1.35540930
 H   -1.31051206   -0.30184854   +6.10964475
 H   +0.50736902   +0.88163716   -0.37878408
 H   -1.95262125   -2.10199240   +6.28569154
 H   -3.08521141   -0.86063960   +5.61834685
 H   -2.20147735   -2.21421849   +3.66088676
 H   -1.55570278   -0.60249396   +3.62525131
 H   -0.10912566   -3.14905103   +4.54893780
 H   +1.88998521   -2.06418564   +3.97831502
 H   +2.01837140   +0.34957052   +3.88685379
 H   +0.26285674   +0.51998463   +3.81724031
 H   +0.50369655   -0.88452179   -0.37719145
 H   -1.04072072   +0.00187711   -0.29696155
 H   -0.77184977   +0.36327772   +6.40454429
22
 * E =  +0.775 kcal/mol ; (17) 177_282_092_126_061
 C   +0.00000000   +0.00000000   +0.00000000
 O   +0.00000000   +0.00000000   +1.41665032
 C   +1.20329335   +0.00000000   +1.98700392
 C   +1.09826039   +0.06129128   +3.48385750
 C   +0.79181050   +1.45869163   +3.93639522
 C   -0.41772889   +1.96894658   +4.13534200
 C   -1.72906193   +1.28039584   +3.96033564
 C   -2.58680826   +1.36152128   +5.18866802
 O   +2.22617334   -0.02502570   +1.35973039
 H   -2.80561029   +2.69945606   +5.40405122
 H   +0.50102751   +0.88605208   -0.37709478
 H   -2.11456732   +1.05677166   +6.11581140
 H   -3.59829244   +0.98618374   +5.08440800
 H   -1.58509316   +0.23984742   +3.66716899
 H   -2.25706850   +1.74245938   +3.12365957
 H   -0.47925229   +3.00046205   +4.46024758
 H   +1.65051033   +2.09829880   +4.08502472
 H   +0.32490398   -0.63137710   +3.80481213
 H   +2.05052021   -0.26635072   +3.88664853
 H   +0.50983926   -0.88018989   -0.37890501
 H   -1.04067174   -0.00463456   -0.29705827
 H   -2.93507722   +3.59269841   +5.49771009
22
 * E =  +0.914 kcal/mol ; (18) 179_043_120_239_067
 C   +0.00000000   +0.00000000   +0.00000000
 O   +0.00000000   +0.00000000   +1.41688439
 C   +1.20233440   +0.00000000   +1.98595290
 C   +1.11911395   +0.01662283   +3.48602366
 C   +0.08812316   -0.91060129   +4.03982234
 C   +0.29747719   -1.92012271   +4.87633349
 C   +1.59259871   -2.38786802   +5.45125736
 C   +1.88280909   -3.81979526   +5.10638074
 O   +2.22417172   +0.01602803   +1.35699333
 H   +2.08249031   -3.84133005   +3.74497254
 H   +0.49549311   +0.88853619   -0.37856728
 H   +1.05611236   -4.51186058   +5.22553739
 H   +2.81949082   -4.21438250   +5.48290908
 H   +1.54653170   -2.29261419   +6.54119257
 H   +2.42171576   -1.76088404   +5.13201401
 H   -0.56855159   -2.49633139   +5.18011166
 H   -0.92263566   -0.72341260   +3.70618847
 H   +2.11655325   -0.18461134   +3.85626531
 H   +0.87009406   +1.04272033   +3.76577022
 H   +0.51562252   -0.87760923   -0.37656504
 H   -1.04079946   -0.01217814   -0.29621168
 H   +2.21915096   -3.80643453   +2.85317162
22
 * E =  +0.957 kcal/mol ; (19) 176_147_079_111_292
 C   +0.00000000   +0.00000000   +0.00000000
 O   +0.00000000   +0.00000000   +1.41703527
 C   +1.20398366   +0.00000000   +1.98499760
 C   +1.10717609   +0.08711698   +3.48322002
 C   +2.19416150   -0.64583351   +4.20201174
 C   +3.43186810   -0.20342801   +4.37887712
 C   +3.98413563   +1.09621175   +3.89841439
 C   +4.28701446   +2.04206433   +5.02367330
 O   +2.22416529   -0.02292187   +1.35349875
 H   +3.06211623   +2.38294423   +5.53789954
 H   +0.50301966   +0.88447132   -0.37832997
 H   +4.69380720   +3.00495625   +4.73574730
 H   +4.78484545   +1.61419330   +5.88717558
 H   +3.31208900   +1.56188239   +3.18107672
 H   +4.90230632   +0.89579189   +3.33904246
 H   +4.11862896   -0.83034791   +4.93438134
 H   +1.93122793   -1.61649410   +4.59848906
 H   +1.13964562   +1.15175197   +3.72179856
 H   +0.12596372   -0.26304260   +3.78713963
 H   +0.50837986   -0.88130964   -0.37791650
 H   -1.04089036   -0.00279112   -0.29614190
 H   +2.22297829   +2.58124647   +5.81929681
22
 * E =  +0.961 kcal/mol ; (20) 183_213_285_228_299
 C   +0.00000000   +0.00000000   +0.00000000
 O   +0.00000000   +0.00000000   +1.41725571
 C   +1.20400088   +0.00000000   +1.98497400
 C   +1.10736644   -0.07410701   +3.48440019
 C   +2.19795233   +0.66409439   +4.19287358
 C   +3.45571348   +0.25841513   +4.31081221
 C   +4.04111692   -1.00141713   +3.76987585
 C   +4.85291727   -1.74424923   +4.78863516
 O   +2.22439428   +0.01518707   +1.35399701
 H   +5.86718124   -0.89490200   +5.15325393
 H   +0.51225958   +0.87920238   -0.37748973
 H   +5.40445203   -2.60151367   +4.42026235
 H   +4.36553290   -1.93147320   +5.73915978
 H   +4.66601770   -0.75352517   +2.91051047
 H   +3.25766018   -1.64747239   +3.36915781
 H   +4.14719673   +0.90085346   +4.84205072
 H   +1.92345698   +1.61856659   +4.61943246
 H   +0.12663268   +0.27908189   +3.78587314
 H   +1.13801059   -1.13833425   +3.72574599
 H   +0.49921821   -0.88657036   -0.37839073
 H   -1.04085416   +0.00737427   -0.29612572
 H   +6.52718563   -0.30589371   +5.35783748
22
 * E =  +1.002 kcal/mol ; (21) 177_143_078_123_178
 C   +0.00000000   +0.00000000   +0.00000000
 O   +0.00000000   +0.00000000   +1.41729302
 C   +1.20310242   +0.00000000   +1.98634128
 C   +1.10605533   +0.06612142   +3.48655424
 C   +2.15243832   -0.74298790   +4.18429894
 C   +3.42021416   -0.38783081   +4.35381471
 C   +4.06075476   +0.88428148   +3.90502946
 C   +4.67548422   +1.61796839   +5.06177022
 O   +2.22491888   -0.01280153   +1.35790559
 H   +5.26016339   +2.74364788   +4.53614437
 H   +0.50657850   +0.88236734   -0.37830478
 H   +5.51811429   +1.12878342   +5.53872720
 H   +3.97705618   +2.03348428   +5.77971259
 H   +3.34015270   +1.51511288   +3.39090690
 H   +4.82778134   +0.64657180   +3.16734556
 H   +4.07230036   -1.08074761   +4.87123341
 H   +1.83554948   -1.70836668   +4.55350549
 H   +1.19789328   +1.12313623   +3.74049541
 H   +0.10749136   -0.23717632   +3.78354853
 H   +0.50500208   -0.88349564   -0.37735040
 H   -1.04087933   +0.00084615   -0.29606826
 H   +5.63373709   +3.47188705   +4.15312496
22
 * E =  +8.386 kcal/mol ; (22) 003_186_169_253_069
 C   +0.00000000   +0.00000000   +0.00000000
 O   +0.00000000   +0.00000000   +1.40887370
 C   +1.13937863   +0.00000000   +2.11087671
 C   +2.42819523   +0.07930651   +1.33424275
 C   +3.62852814   -0.08200347   +2.20928359
 C   +4.86585236   -0.26769996   +1.76930072
 C   +5.29228798   -0.35003133   +0.34010554
 C   +5.64995379   -1.74793970   -0.07657554
 O   +1.08219868   -0.03937165   +3.30420691
 H   +4.46143941   -2.43622765   -0.07241331
 H   +0.55052851   +0.84577404   -0.40510706
 H   +6.24413079   -2.31660382   +0.62981385
 H   +5.98017227   -1.86706690   -1.10245743
 H   +6.16235215   +0.29597474   +0.19136591
 H   +4.51874864   +0.04008495   -0.32094250
 H   +5.65076073   -0.39282705   +2.50424887
 H   +3.43364340   -0.04954564   +3.27072670
 H   +2.41687701   -0.67025271   +0.54355130
 H   +2.44033024   +1.04666622   +0.82510467
 H   +0.40605531   -0.92724031   -0.39793912
 H   -1.03903876   +0.08375983   -0.29303558
 H   +3.64593841   -2.82913804   -0.07592756
22
 * E =  +8.426 kcal/mol ; (23) 357_174_211_117_179
 C   +0.00000000   +0.00000000   +0.00000000
 O   +0.00000000   +0.00000000   +1.40865770
 C   +1.13934151   +0.00000000   +2.11136204
 C   +2.43105371   -0.06303553   +1.33535435
 C   +3.62140295   +0.08274114   +2.22179025
 C   +4.78307615   +0.63092331   +1.88595136
 C   +5.15873522   +1.24053259   +0.57302608
 C   +5.45438677   +2.70515958   +0.72636013
 O   +1.08284110   +0.02352605   +3.30479899
 H   +5.80676395   +3.15520205   -0.52245098
 H   +0.40154697   +0.92913814   -0.39855963
 H   +6.33232893   +2.94920290   +1.31431052
 H   +4.60363448   +3.33057651   +0.97207698
 H   +4.37272845   +1.09601864   -0.16512700
 H   +6.04253987   +0.73287239   +0.18428532
 H   +5.55486939   +0.66366721   +2.64456154
 H   +3.49205990   -0.30163090   +3.22261436
 H   +2.45040395   -1.02980530   +0.82403235
 H   +2.41591833   +0.68613787   +0.54706635
 H   +0.55408899   -0.84315044   -0.40553878
 H   -1.03855707   -0.08768999   -0.29350083
 H   +6.03164140   +3.40635447   -1.36101038
22
 * E =  +8.450 kcal/mol ; (24) 358_276_128_113_178
 C   +0.00000000   +0.00000000   +0.00000000
 O   +0.00000000   +0.00000000   +1.41032958
 C   +1.13984568   +0.00000000   +2.10677426
 C   +2.44790390   -0.05416336   +1.35210650
 C   +2.80026880   -1.47078144   +1.01696915
 C   +3.11584245   -1.96001614   -0.17810567
 C   +3.20134172   -1.22351334   -1.47638376
 C   +4.62105961   -1.16764736   -1.96522428
 O   +1.09309807   +0.00748202   +3.30205030
 H   +4.58075624   -0.51028409   -3.16927167
 H   +0.37736218   +0.94128295   -0.39461541
 H   +5.06237966   -2.11969002   -2.23837030
 H   +5.29163369   -0.55011372   -1.37888816
 H   +2.80650883   -0.21400868   -1.38288437
 H   +2.58557666   -1.73464752   -2.21795750
 H   +3.36828289   -3.01164539   -0.23071541
 H   +2.80484839   -2.14492886   +1.86310522
 H   +2.42796161   +0.57670390   +0.46906960
 H   +3.18864634   +0.34881735   +2.03788401
 H   +0.57728053   -0.82990354   -0.39804089
 H   -1.03665330   -0.11103320   -0.29286409
 H   +4.50487088   -0.07495225   -3.95766747
22
 * E =  +8.455 kcal/mol ; (25) 358_276_133_218_066
 C   +0.00000000   +0.00000000   +0.00000000
 O   +0.00000000   +0.00000000   +1.41143183
 C   +1.14012833   +0.00000000   +2.10497020
 C   +2.44560438   -0.04381348   +1.34590898
 C   +2.80720914   -1.45439637   +0.99514372
 C   +3.21363267   -1.90539832   -0.18610668
 C   +3.39482153   -1.12801979   -1.44843108
 C   +2.96725474   -1.88738050   -2.66833840
 O   +1.09778503   +0.00116185   +3.30081777
 H   +1.60534137   -2.05778736   -2.56770673
 H   +0.34052178   +0.95675885   -0.39142684
 H   +3.31400365   -2.91317894   -2.73052340
 H   +3.05722770   -1.35668637   -3.60873988
 H   +4.45556489   -0.87400752   -1.55386125
 H   +2.86997640   -0.17425786   -1.40526658
 H   +3.46620664   -2.95667929   -0.25329180
 H   +2.74871492   -2.15421607   +1.81799076
 H   +2.42113518   +0.59517796   +0.46850891
 H   +3.18744121   +0.35745669   +2.03193312
 H   +0.60671591   -0.80684536   -0.40092236
 H   -1.03108620   -0.15134481   -0.29405793
 H   +0.70992133   -2.14488211   -2.48252046
22
 * E =  +8.599 kcal/mol ; (26) 357_279_285_109_174
 C   +0.00000000   +0.00000000   +0.00000000
 O   +0.00000000   +0.00000000   +1.40916441
 C   +1.13923983   +0.00000000   +2.10650785
 C   +2.45046405   -0.07386302   +1.35913803
 C   +2.77114152   -1.49029516   +0.96732249
 C   +3.19960900   -2.43373175   +1.80050822
 C   +3.42979714   -2.29855228   +3.27019886
 C   +2.37849705   -3.05229308   +4.03596648
 O   +1.08653897   +0.02353210   +3.30235424
 H   +2.75601212   -2.98629718   +5.35065763
 H   +0.38299050   +0.93795747   -0.39581528
 H   +2.34748484   -4.12326568   +3.86583763
 H   +1.39932130   -2.58919561   +4.04798923
 H   +3.40944253   -1.25517621   +3.57302355
 H   +4.41560200   -2.69772113   +3.51239947
 H   +3.38464619   -3.41706605   +1.38615210
 H   +2.63613378   -1.75118088   -0.07316802
 H   +2.43769057   +0.56388039   +0.47967175
 H   +3.19742240   +0.31847010   +2.04146679
 H   +0.56856937   -0.83408836   -0.40177245
 H   -1.03685023   -0.10722058   -0.29345626
 H   +3.05260080   -2.93254330   +6.20341281
22
 * E =  +8.601 kcal/mol ; (27) 357_275_129_233_181
 C   +0.00000000   +0.00000000   +0.00000000
 O   +0.00000000   +0.00000000   +1.40993627
 C   +1.14182202   +0.00000000   +2.10374499
 C   +2.44668707   -0.06371503   +1.34504718
 C   +2.80360053   -1.48622955   +1.04031504
 C   +3.14320781   -1.99807943   -0.13834780
 C   +3.22124313   -1.29872981   -1.45798211
 C   +2.42153827   -2.02059394   -2.50462542
 O   +1.09814971   +0.01262379   +3.29896596
 H   +2.59045297   -1.31031325   -3.66868865
 H   +0.35604593   +0.94980680   -0.39397627
 H   +1.34481664   -2.00355622   -2.37604438
 H   +2.78805444   -3.00262790   -2.78231937
 H   +4.26457130   -1.25300950   -1.77449532
 H   +2.87934209   -0.26888544   -1.37578692
 H   +3.39855092   -3.05019996   -0.16345127
 H   +2.80063480   -2.14305159   +1.89998082
 H   +2.42263226   +0.54806584   +0.44902590
 H   +3.18932825   +0.35587843   +2.01880160
 H   +0.59710322   -0.81627027   -0.39749280
 H   -1.03348003   -0.13567549   -0.29393668
 H   +2.73095011   -0.81534753   -4.41004565
22
 * E =  +8.614 kcal/mol ; (28) 358_276_130_101_293
 C   +0.00000000   +0.00000000   +0.00000000
 O   +0.00000000   +0.00000000   +1.40991092
 C   +1.14139150   +0.00000000   +2.10545478
 C   +2.44715931   -0.05323700   +1.34861308
 C   +2.79827637   -1.46686675   +1.00046344
 C   +3.16012404   -1.92835380   -0.19132976
 C   +3.29607667   -1.14994910   -1.45924240
 C   +4.72780099   -0.82362147   -1.77689109
 O   +1.09417967   +0.00622274   +3.30070806
 H   +5.11187241   +0.05703675   -0.79471211
 H   +0.37446286   +0.94272204   -0.39427774
 H   +4.89207622   -0.25271224   -2.68370413
 H   +5.43791663   -1.63282655   -1.64971667
 H   +2.71727728   -0.22766624   -1.42261459
 H   +2.87366493   -1.73526879   -2.28062582
 H   +3.42356967   -2.97643216   -0.25787792
 H   +2.77375137   -2.15717130   +1.83311293
 H   +2.43355214   +0.58516896   +0.47054983
 H   +3.19437427   +0.34071641   +2.03275377
 H   +0.58045189   -0.82799186   -0.39792569
 H   -1.03623147   -0.11447830   -0.29330124
 H   +5.29767480   +0.64349564   -0.13196724
22
 * E =  +8.619 kcal/mol ; (29) 358_275_128_231_297
 C   +0.00000000   +0.00000000   +0.00000000
 O   +0.00000000   +0.00000000   +1.40988952
 C   +1.14081671   +0.00000000   +2.10583018
 C   +2.44698992   -0.05110502   +1.34878212
 C   +2.80782999   -1.46805977   +1.02254115
 C   +3.13573038   -1.96191848   -0.16621391
 C   +3.20064988   -1.24212236   -1.47242815
 C   +2.42766262   -1.94927991   -2.54751408
 O   +1.09443702   +0.00589507   +3.30098870
 H   +3.04054926   -3.16606208   -2.70295638
 H   +0.35971419   +0.94856016   -0.39400418
 H   +2.51059406   -1.53008092   -3.54337456
 H   +1.41396021   -2.23885156   -2.29214755
 H   +4.24372234   -1.15840761   -1.78429162
 H   +2.83912883   -0.21655849   -1.37402542
 H   +3.39071758   -3.01341576   -0.21360369
 H   +2.81304381   -2.13651030   +1.87309880
 H   +2.42087251   +0.57359688   +0.46152880
 H   +3.18782294   +0.36154448   +2.02866952
 H   +0.59339381   -0.81832478   -0.39888382
 H   -1.03420845   -0.13091915   -0.29356168
 H   +3.49032631   -3.94993259   -2.77999179
22
 * E =  +8.684 kcal/mol ; (30) 357_174_211_126_062
 C   +0.00000000   +0.00000000   +0.00000000
 O   +0.00000000   +0.00000000   +1.40847870
 C   +1.14017028   +0.00000000   +2.11059745
 C   +2.43115082   -0.06515149   +1.33367278
 C   +3.62310316   +0.07609380   +2.21874215
 C   +4.78721975   +0.61809658   +1.88423335
 C   +5.17183596   +1.21910306   +0.57298359
 C   +5.69626986   +2.61783051   +0.71852018
 O   +1.08412700   +0.02515217   +3.30388835
 H   +6.82233402   +2.51037115   +1.49594939
 H   +0.40015033   +0.92983446   -0.39846713
 H   +5.08056013   +3.29382523   +1.30077068
 H   +6.09300776   +3.07106629   -0.18262748
 H   +4.33055226   +1.21267337   -0.12287369
 H   +5.94150816   +0.59955526   +0.10761818
 H   +5.56173868   +0.64158354   +2.64061655
 H   +3.49289517   -0.30999941   +3.21875173
 H   +2.44807816   -1.03097833   +0.82058593
 H   +2.41733406   +0.68488057   +0.54582929
 H   +0.55551582   -0.84217425   -0.40565306
 H   -1.03839410   -0.08925931   -0.29371848
 H   +7.56787218   +2.38690028   +1.99698874
22
 * E =  +8.693 kcal/mol ; (31) 002_084_233_239_299
 C   +0.00000000   +0.00000000   +0.00000000
 O   +0.00000000   +0.00000000   +1.41010648
 C   +1.13988269   +0.00000000   +2.10697811
 C   +2.44803586   +0.05281742   +1.35269041
 C   +2.80133979   +1.46891619   +1.01444038
 C   +3.10739027   +1.95991833   -0.18136505
 C   +3.16971657   +1.23214468   -1.48317005
 C   +4.53090938   +1.30941034   -2.11215659
 O   +1.09230530   -0.00791527   +3.30215819
 H   +4.75954272   +2.64527713   -2.33645810
 H   +0.57957857   +0.82810389   -0.39836661
 H   +4.61179305   +0.89994779   -3.11232797
 H   +5.36131293   +1.03792521   -1.47077089
 H   +2.44005067   +1.66669879   -2.17037579
 H   +2.88312287   +0.18572802   -1.36295223
 H   +3.35926033   +3.01170663   -0.23623659
 H   +2.81468668   +2.14162368   +1.86159551
 H   +3.18824917   -0.34918542   +2.03944205
 H   +2.42611320   -0.57987823   +0.47094462
 H   +0.37481116   -0.94244184   -0.39443080
 H   -1.03635817   +0.11391697   -0.29291874
 H   +4.85627347   +3.53457628   -2.47963297
22
 * E =  +8.807 kcal/mol ; (32) 357_280_287_111_059
 C   +0.00000000   +0.00000000   +0.00000000
 O   +0.00000000   +0.00000000   +1.40919051
 C   +1.13899160   +0.00000000   +2.10679070
 C   +2.44984241   -0.07235012   +1.35847790
 C   +2.76538442   -1.48464682   +0.94435309
 C   +3.15696099   -2.45094537   +1.76762815
 C   +3.35176109   -2.34316219   +3.24289860
 C   +2.31630551   -3.11977409   +4.00426274
 O   +1.08543821   +0.02512269   +3.30265843
 H   +2.44728959   -4.43121721   +3.59122358
 H   +0.38135853   +0.93880333   -0.39550656
 H   +1.28743708   -2.88737273   +3.75616281
 H   +2.48712544   -3.20352446   +5.07116497
 H   +3.31018700   -1.30177313   +3.56377397
 H   +4.34349395   -2.71937012   +3.49851053
 H   +3.34091970   -3.42927688   +1.34163050
 H   +2.65868023   -1.71970540   -0.10549605
 H   +2.43878509   +0.57827676   +0.48837669
 H   +3.19952279   +0.30761318   +2.04505812
 H   +0.57045231   -0.83292471   -0.40133485
 H   -1.03658732   -0.10918969   -0.29358177
 H   +2.58296931   -5.27617266   +3.30171779
22
 * E =  +8.940 kcal/mol ; (33) 358_282_288_230_300
 C   +0.00000000   +0.00000000   +0.00000000
 O   +0.00000000   +0.00000000   +1.40904764
 C   +1.13933088   +0.00000000   +2.10619098
 C   +2.45030825   -0.05302849   +1.35534740
 C   +2.77347140   -1.43798476   +0.86332186
 C   +3.14431368   -2.45464278   +1.63392958
 C   +3.30946151   -2.43879693   +3.11592803
 C   +4.62943390   -3.00781724   +3.54497988
 O   +1.08676357   +0.02308161   +3.30194795
 H   +4.64537159   -4.30447454   +3.09196380
 H   +0.39582262   +0.93249833   -0.39641091
 H   +4.75846427   -3.14196824   +4.61245990
 H   +5.50540467   -2.58909887   +3.06205534
 H   +2.50390870   -3.02225082   +3.56657135
 H   +3.18268753   -1.42988428   +3.51031602
 H   +3.35905045   -3.39986999   +1.15046148
 H   +2.70214205   -1.60552465   -0.20224256
 H   +2.44055511   +0.64371089   +0.52115925
 H   +3.20052567   +0.28995318   +2.06108879
 H   +0.55709378   -0.84195536   -0.40081878
 H   -1.03828114   -0.09256604   -0.29339567
 H   +4.60523250   -5.15618789   +2.78140154
22
 * E =  +8.961 kcal/mol ; (34) 003_080_078_113_293
 C   +0.00000000   +0.00000000   +0.00000000
 O   +0.00000000   +0.00000000   +1.40880913
 C   +1.13970869   +0.00000000   +2.10637638
 C   +2.45099909   +0.07241743   +1.35854700
 C   +2.78275867   +1.47635456   +0.93175750
 C   +3.26923944   +2.41667315   +1.73333456
 C   +3.57316485   +2.27196504   +3.18665205
 C   +5.04654644   +2.35121445   +3.46389072
 O   +1.08597452   -0.03401316   +3.30184236
 H   +5.57919788   +1.22919057   +2.87861309
 H   +0.56243543   +0.83785094   -0.40222357
 H   +5.33606979   +2.23195222   +4.50151722
 H   +5.58637064   +3.14753857   +2.96263033
 H   +3.16069177   +1.34709045   +3.58268051
 H   +3.06501003   +3.07450885   +3.72969734
 H   +3.49695575   +3.38105576   +1.29550232
 H   +2.62704180   +1.72182186   -0.10952278
 H   +3.20258277   -0.30334152   +2.04544123
 H   +2.43881505   -0.58420745   +0.49255388
 H   +0.38957396   -0.93509438   -0.39629155
 H   -1.03759244   +0.09989544   -0.29357257
 H   +5.86819285   +0.46679412   +2.48358447
22
 * E =  +9.054 kcal/mol ; (35) 357_170_071_243_299
 C   +0.00000000   +0.00000000   +0.00000000
 O   +0.00000000   +0.00000000   +1.40866043
 C   +1.13702453   +0.00000000   +2.11706515
 C   +2.43327671   -0.06879894   +1.33997015
 C   +3.65084415   +0.17609435   +2.17195490
 C   +4.13497228   -0.65199323   +3.08746086
 C   +3.55876184   -1.96738630   +3.48915788
 C   +3.12525186   -1.96708363   +4.92625379
 O   +1.07148001   +0.01709369   +3.30952758
 H   +4.26701364   -1.71376025   +5.65872564
 H   +0.38132559   +0.93786100   -0.39790927
 H   +2.82034104   -2.92782320   +5.32520689
 H   +2.46776952   -1.15172182   +5.20127946
 H   +4.30215191   -2.75196793   +3.33442489
 H   +2.70222977   -2.22001880   +2.86102585
 H   +5.02019403   -0.34670791   +3.63087382
 H   +4.15449871   +1.11812865   +2.01009338
 H   +2.46748897   -1.05716716   +0.87582049
 H   +2.39547607   +0.63805766   +0.51458837
 H   +0.57222565   -0.83057891   -0.40616455
 H   -1.03665452   -0.10967757   -0.29324120
 H   +5.04530767   -1.56655718   +6.09446748
22
 * E =  +9.191 kcal/mol ; (36) 357_281_285_241_183
 C   +0.00000000   +0.00000000   +0.00000000
 O   +0.00000000   +0.00000000   +1.40875824
 C   +1.13915099   +0.00000000   +2.10691152
 C   +2.45093640   -0.07602479   +1.35892008
 C   +2.76863141   -1.47659615   +0.91098861
 C   +3.20205469   -2.45207959   +1.70308811
 C   +3.47063891   -2.36412916   +3.16986480
 C   +4.91606015   -2.65591750   +3.45778004
 O   +1.08647966   +0.03791555   +3.30192414
 H   +5.05274114   -2.61528852   +4.82239640
 H   +0.39888196   +0.93111364   -0.39655684
 H   +5.62094861   -1.89955982   +3.13132870
 H   +5.25099469   -3.66197635   +3.22850396
 H   +2.84292771   -3.09177666   +3.68615696
 H   +3.18733729   -1.38983597   +3.55877157
 H   +3.40692074   -3.41261250   +1.24628900
 H   +2.63733586   -1.69458340   -0.13974198
 H   +2.44478208   +0.59393343   +0.50302823
 H   +3.20090559   +0.28597893   +2.05467023
 H   +0.55369858   -0.84378317   -0.40188590
 H   -1.03857713   -0.08916919   -0.29347912
 H   +5.10546699   -2.58648316   +5.72359498
22
 * E =  +9.262 kcal/mol ; (37) 011_292_293_120_302
 C   +0.00000000   +0.00000000   +0.00000000
 O   +0.00000000   +0.00000000   +1.40852129
 C   +1.13236138   +0.00000000   +2.11322803
 C   +2.43925116   +0.25642197   +1.39454771
 C   +2.86780813   -0.82387423   +0.43948727
 C   +3.22581253   -2.05338032   +0.79061856
 C   +3.22416889   -2.61170058   +2.17418710
 C   +2.32159198   -3.80633155   +2.29213496
 O   +1.07799452   -0.16281628   +3.29865387
 H   +1.07768417   -3.36264147   +1.90895017
 H   +0.63552105   +0.78268668   -0.40894053
 H   +2.14905738   -4.16927166   +3.29805756
 H   +2.49801984   -4.60393645   +1.57804436
 H   +2.92935563   -1.85749102   +2.89964845
 H   +4.24457097   -2.91448870   +2.43210107
 H   +3.53195748   -2.73389791   +0.00513515
 H   +2.90173546   -0.56014167   -0.60841435
 H   +2.36723988   +1.20596962   +0.86724190
 H   +3.17196552   +0.38667289   +2.18483577
 H   +0.31543208   -0.96716215   -0.38182207
 H   -1.02471037   +0.19014909   -0.29469439
 H   +0.28634605   -3.02857507   +1.62569752
22
 * E =  +9.356 kcal/mol ; (38) 358_169_077_109_292
 C   +0.00000000   +0.00000000   +0.00000000
 O   +0.00000000   +0.00000000   +1.40875629
 C   +1.13888308   +0.00000000   +2.11514530
 C   +2.43359097   -0.04341862   +1.33457827
 C   +3.64661509   +0.22388059   +2.16423729
 C   +4.21479601   -0.64626346   +2.98707524
 C   +3.74617540   -2.03661669   +3.25556476
 C   +4.65743337   -3.07665380   +2.67179285
 O   +1.07745587   -0.00297802   +3.30775912
 H   +4.51197746   -2.94889708   +1.31352326
 H   +0.36918458   +0.94275768   -0.39798899
 H   +4.36758822   -4.10785392   +2.83942769
 H   +5.72080847   -2.90873798   +2.80297355
 H   +2.73071307   -2.18198411   +2.89259734
 H   +3.68508100   -2.17798290   +4.33804634
 H   +5.10474219   -0.33533002   +3.51965910
 H   +4.07730019   +1.21091052   +2.07626167
 H   +2.49376793   -1.03150629   +0.87241836
 H   +2.38313826   +0.66256891   +0.50900377
 H   +0.58319751   -0.82292908   -0.40594856
 H   -1.03517971   -0.12297876   -0.29338304
 H   +4.35424475   -2.82550141   +0.42896800
22
 * E =  +9.573 kcal/mol ; (39) 358_169_071_135_060
 C   +0.00000000   +0.00000000   +0.00000000
 O   +0.00000000   +0.00000000   +1.40848936
 C   +1.13926728   +0.00000000   +2.11515217
 C   +2.43430978   -0.04485233   +1.33394046
 C   +3.64880119   +0.22223666   +2.16241339
 C   +4.14896596   -0.59808079   +3.07646304
 C   +3.60015818   -1.92737965   +3.46750943
 C   +4.65894689   -2.98303025   +3.57996447
 O   +1.07761625   -0.00093683   +3.30745540
 H   +5.52707084   -2.54375285   +4.54803642
 H   +0.36930692   +0.94250454   -0.39845705
 H   +5.31595384   -3.08958992   +2.72372215
 H   +4.33663452   -3.93455994   +3.98642523
 H   +2.83017616   -2.24781039   +2.76199119
 H   +3.08177720   -1.81918955   +4.42162339
 H   +5.03014001   -0.27890618   +3.61878341
 H   +4.13150398   +1.17587296   +2.00498732
 H   +2.48563676   -1.03514395   +0.87429162
 H   +2.38260795   +0.65817983   +0.50628294
 H   +0.58283480   -0.82320005   -0.40616213
 H   -1.03512608   -0.12291992   -0.29359977
 H   +6.07203073   -2.22161005   +5.19829798
22
 * E =  +9.640 kcal/mol ; (40) 357_170_071_127_179
 C   +0.00000000   +0.00000000   +0.00000000
 O   +0.00000000   +0.00000000   +1.40844222
 C   +1.13806828   +0.00000000   +2.11635413
 C   +2.43413111   -0.06005425   +1.33690501
 C   +3.64822031   +0.18976293   +2.17089952
 C   +4.13500424   -0.64193571   +3.08265237
 C   +3.57674157   -1.97609722   +3.45301502
 C   +4.62504526   -3.04826119   +3.38433307
 O   +1.07556064   +0.00993795   +3.30844473
 H   +4.00742962   -4.21434693   +3.76687178
 H   +0.37951133   +0.93843005   -0.39852578
 H   +5.42821634   -2.97120510   +4.10928330
 H   +4.98504733   -3.29277328   +2.39107543
 H   +2.73492610   -2.23029661   +2.81256250
 H   +3.17283142   -1.91276742   +4.46410856
 H   +5.01649300   -0.33359655   +3.63062212
 H   +4.14037799   +1.14029432   +2.02391133
 H   +2.47407516   -1.04862547   +0.87322180
 H   +2.39308951   +0.64718911   +0.51211091
 H   +0.57348230   -0.82968998   -0.40633025
 H   -1.03642384   -0.11169983   -0.29340623
 H   +3.56676359   -4.95931308   +4.02413780
