22
 * E =  +0.000 kcal/mol ; (1) 177_167_212_125_279
 C   +0.00000000   +0.00000000   +0.00000000
 O   +0.00000000   +0.00000000   +1.38201855
 C   +1.19923000   +0.00000000   +1.98914864
 C   +1.03995761   +0.07513548   +3.47613112
 C   +2.30510980   -0.23187492   +4.20252669
 C   +2.40347072   -0.81514221   +5.39097850
 C   +1.30023900   -1.30776549   +6.26488857
 C   +1.47216199   -2.77269744   +6.63355857
 O   +2.23202990   -0.03473852   +1.38559788
 H   +2.42642306   -2.94020666   +7.12913362
 H   +0.20826376   +1.26460912   -0.40297331
 H   +1.44674134   -3.40274409   +5.74762356
 H   +0.68541105   -3.10348457   +7.30724980
 H   +0.33150769   -1.15550758   +5.79362920
 H   +1.28705450   -0.71170971   +7.17947159
 H   +3.40157411   -0.96265605   +5.78661360
 H   +3.20801494   +0.06431800   +3.68800856
 H   +0.70663760   +1.09491363   +3.68721636
 H   +0.21325242   -0.56825316   +3.76385869
 H   +0.82215135   -0.55152351   -0.43750942
 H   -0.99011345   -0.24506608   -0.35575503
 H   +0.34704873   +2.15544581   -0.62642067
22
 * E =  +0.056 kcal/mol ; (2) 179_169_211_125_081
 C   +0.00000000   +0.00000000   +0.00000000
 O   +0.00000000   +0.00000000   +1.38194184
 C   +1.19904342   +0.00000000   +1.98933314
 C   +1.03767628   +0.02055771   +3.47791486
 C   +2.31705089   -0.24605196   +4.19563463
 C   +2.44246829   -0.84686875   +5.37266391
 C   +1.36209703   -1.40163943   +6.23780511
 C   +1.59437574   -2.86560887   +6.57605283
 O   +2.23208880   +0.01374817   +1.38533659
 H   +2.55551000   -3.00404654   +7.06730809
 H   +0.20456693   -1.26471939   -0.40365966
 H   +1.59321619   -3.47766317   +5.67728016
 H   +0.82288029   -3.24205612   +7.24338969
 H   +0.38706350   -1.27952990   +5.77070781
 H   +1.32641086   -0.82537076   +7.16440740
 H   +3.44666229   -0.96074955   +5.76391190
 H   +3.20553889   +0.09631686   +3.68472811
 H   +0.65028971   +1.01293310   +3.72407199
 H   +0.24621532   -0.67553488   +3.74168335
 H   -0.98971432   +0.24693279   -0.35563439
 H   +0.82330825   +0.54922770   -0.43828450
 H   +0.33951995   -2.15554066   -0.62837270
22
 * E =  +0.176 kcal/mol ; (3) 179_168_213_240_081
 C   +0.00000000   +0.00000000   +0.00000000
 O   +0.00000000   +0.00000000   +1.38196142
 C   +1.19911532   +0.00000000   +1.98916741
 C   +1.03861742   +0.02598063   +3.47785746
 C   +2.31542874   -0.25665769   +4.19450689
 C   +2.43942739   -0.88230588   +5.35867004
 C   +1.35755278   -1.43398761   +6.22408856
 C   +1.34685797   -0.78886485   +7.60183529
 O   +2.23211720   +0.01163070   +1.38505766
 H   +1.15340332   +0.27887777   +7.53044020
 H   +0.20610951   -1.26452404   -0.40380082
 H   +2.30576516   -0.91716103   +8.09996062
 H   +0.58144563   -1.23030490   +8.23558566
 H   +1.51248793   -2.50815663   +6.33900920
 H   +0.38291506   -1.31120337   +5.75721606
 H   +3.44330697   -1.00057710   +5.74933022
 H   +3.20544337   +0.09286299   +3.69107134
 H   +0.66905542   +1.02615270   +3.72034130
 H   +0.23665604   -0.65645878   +3.74375970
 H   -0.99002307   +0.24579438   -0.35556043
 H   +0.82259541   +0.55020191   -0.43839205
 H   +0.34208662   -2.15502947   -0.62866908
22
 * E =  +0.408 kcal/mol ; (4) 179_056_118_238_280
 C   +0.00000000   +0.00000000   +0.00000000
 O   +0.00000000   +0.00000000   +1.38156613
 C   +1.19911370   +0.00000000   +1.98880224
 C   +1.05378764   +0.01579412   +3.48041935
 C   +0.22254910   -1.12279959   +3.98130577
 C   +0.62125915   -2.09426934   +4.79484497
 C   +1.96993958   -2.31042768   +5.39212137
 C   +2.54605152   -3.66604173   +5.01303776
 O   +2.23228339   -0.00965533   +1.38456025
 H   +2.69077186   -3.73903993   +3.93798212
 H   +0.21226112   +1.26340769   -0.40418015
 H   +1.87982341   -4.47235503   +5.31372669
 H   +3.50634542   -3.83092737   +5.49535270
 H   +1.88271132   -2.25386735   +6.47861268
 H   +2.66130445   -1.52495789   +5.09829650
 H   -0.11760507   -2.84197933   +5.05989159
 H   -0.79942584   -1.13242242   +3.62892562
 H   +2.05312952   +0.02132448   +3.89623729
 H   +0.57256949   +0.95887811   +3.74460038
 H   +0.82032408   -0.55414141   -0.43757595
 H   -0.99089103   -0.24154350   -0.35610779
 H   +0.35249661   +2.15339365   -0.62980224
22
 * E =  +0.432 kcal/mol ; (5) 179_055_115_120_279
 C   +0.00000000   +0.00000000   +0.00000000
 O   +0.00000000   +0.00000000   +1.38144948
 C   +1.19897144   +0.00000000   +1.98895629
 C   +1.05246384   +0.01667611   +3.48062861
 C   +0.20037425   -1.10605682   +3.98220243
 C   +0.59493270   -2.11225911   +4.75454060
 C   +1.95170680   -2.37605072   +5.31289144
 C   +1.94470578   -2.41449120   +6.83330848
 O   +2.23234972   -0.00911089   +1.38518981
 H   +1.24643381   -3.16313182   +7.20248523
 H   +0.20967050   +1.26370165   -0.40413696
 H   +1.64616746   -1.45367399   +7.24587542
 H   +2.92999762   -2.65853834   +7.22283058
 H   +2.67115054   -1.63965631   +4.96426016
 H   +2.29805831   -3.33975959   +4.93605831
 H   -0.16044010   -2.83790772   +5.03388345
 H   -0.83252868   -1.07409418   +3.66498896
 H   +2.05147198   +0.00490893   +3.89743314
 H   +0.58767815   +0.96810197   +3.74393421
 H   +0.82174613   -0.55234162   -0.43722927
 H   -0.99030578   -0.24375247   -0.35624359
 H   +0.34829047   +2.15412415   -0.62967534
22
 * E =  +0.481 kcal/mol ; (6) 181_058_118_239_081
 C   +0.00000000   +0.00000000   +0.00000000
 O   +0.00000000   +0.00000000   +1.38176633
 C   +1.19852362   +0.00000000   +1.99039576
 C   +1.05052169   -0.03381744   +3.48150939
 C   +0.26903128   -1.22375646   +3.94219593
 C   +0.70728427   -2.19966066   +4.72946031
 C   +2.06116822   -2.37172480   +5.32906093
 C   +2.70438816   -3.68331608   +4.90541638
 O   +2.23228683   +0.03534938   +1.38807839
 H   +2.85756169   -3.71019622   +3.82945909
 H   +0.20860697   -1.26402073   -0.40490740
 H   +2.07652392   -4.53117410   +5.17244179
 H   +3.66908328   -3.81885726   +5.38814311
 H   +1.96502213   -2.35874667   +6.41619727
 H   +2.71518976   -1.54357089   +5.06867809
 H   +0.00251842   -2.98878841   +4.96551205
 H   -0.74854975   -1.27027517   +3.58031766
 H   +2.04805623   +0.00027862   +3.90034768
 H   +0.52786244   +0.87802016   +3.77496156
 H   -0.99025600   +0.24442343   -0.35585540
 H   +0.82152666   +0.55227572   -0.43776852
 H   +0.34658973   -2.15331508   -0.63336210
22
 * E =  +0.495 kcal/mol ; (7) 175_277_092_242_276
 C   +0.00000000   +0.00000000   +0.00000000
 O   +0.00000000   +0.00000000   +1.38115634
 C   +1.19778559   +0.00000000   +1.99469288
 C   +1.03573186   +0.12219479   +3.47914221
 C   +0.87496013   +1.56751959   +3.85641429
 C   -0.27595163   +2.21781606   +3.98466830
 C   -1.65231873   +1.68962196   +3.76850713
 C   -2.36175012   +2.43152822   +2.64545526
 O   +2.23441875   -0.06483336   +1.39986972
 H   -1.82901865   +2.30469108   +1.70625795
 H   +0.12502000   +1.27543068   -0.39566277
 H   -2.41876018   +3.49810690   +2.85392391
 H   -3.37653666   +2.06336484   +2.51491901
 H   -2.22517601   +1.80541564   +4.69021230
 H   -1.62848674   +0.62779425   +3.53793586
 H   -0.22108172   +3.26654664   +4.25296516
 H   +1.79659102   +2.11165029   +4.00697293
 H   +0.17656080   -0.46419100   +3.79001755
 H   +1.92859893   -0.28950372   +3.93748148
 H   +0.85390320   -0.50023940   -0.43817068
 H   -0.97314359   -0.30324401   -0.35844872
 H   +0.20091022   +2.17836371   -0.61129306
22
 * E =  +0.510 kcal/mol ; (8) 178_281_095_242_080
 C   +0.00000000   +0.00000000   +0.00000000
 O   +0.00000000   +0.00000000   +1.38118763
 C   +1.20136230   +0.00000000   +1.98614961
 C   +1.05140565   +0.04023038   +3.47682145
 C   +0.74714606   +1.43691554   +3.93543963
 C   -0.45980219   +1.93936962   +4.16945962
 C   -1.77745317   +1.26122184   +4.01478268
 C   -2.64638251   +1.95968885   +2.97975337
 O   +2.23337625   -0.00223096   +1.37966698
 H   -2.17159447   +1.93163761   +2.00221607
 H   +0.21689360   -1.26154106   -0.40466502
 H   -2.80879549   +3.00323987   +3.24230674
 H   -3.61939805   +1.48106275   +2.89996081
 H   -2.29374279   +1.26777066   +4.97625199
 H   -1.64786444   +0.22017803   +3.73077844
 H   -0.50860986   +2.97359072   +4.49032428
 H   +1.60749601   +2.07930347   +4.06155559
 H   +0.26413292   -0.64937327   +3.76577772
 H   +1.98949737   -0.30076365   +3.90187206
 H   -0.99196165   +0.23740777   -0.35647192
 H   +0.81795132   +0.55737494   -0.43810462
 H   +0.36010750   -2.15153118   -0.63067138
22
 * E =  +0.512 kcal/mol ; (9) 185_078_079_247_078
 C   +0.00000000   +0.00000000   +0.00000000
 O   +0.00000000   +0.00000000   +1.38165073
 C   +1.19970059   +0.00000000   +1.98560694
 C   +1.06509739   -0.13028635   +3.47095339
 C   +0.77782884   -1.56321154   +3.82973605
 C   +1.68826507   -2.52888213   +3.88807665
 C   +3.14498453   -2.41023874   +3.59651010
 C   +3.52800838   -3.18599239   +2.34403609
 O   +2.23180687   +0.06147836   +1.37975884
 H   +3.02592532   -2.77480346   +1.47212231
 H   +0.26257626   -1.25646300   -0.39888447
 H   +3.25210594   -4.23522776   +2.43055685
 H   +4.59996866   -3.13486810   +2.17015523
 H   +3.70849963   -2.79892489   +4.44608946
 H   +3.43087591   -1.36900901   +3.46960585
 H   +1.34106529   -3.52317991   +4.14340729
 H   -0.25677022   -1.80834132   +4.02026238
 H   +1.99497745   +0.21427729   +3.91057698
 H   +0.25697975   +0.50896227   +3.81388458
 H   -0.99890253   +0.20548408   -0.35599842
 H   +0.79961607   +0.58285487   -0.43878164
 H   +0.44440637   -2.14135433   -0.61417050
22
 * E =  +0.517 kcal/mol ; (10) 183_082_085_247_280
 C   +0.00000000   +0.00000000   +0.00000000
 O   +0.00000000   +0.00000000   +1.38159355
 C   +1.19884413   +0.00000000   +1.98716166
 C   +1.06089727   -0.06085683   +3.47727995
 C   +0.85465973   -1.48604659   +3.90927743
 C   +1.82316642   -2.36899421   +4.12735219
 C   +3.29127839   -2.15902914   +3.97986335
 C   +3.86378453   -2.98682164   +2.83814842
 O   +2.23288612   +0.00326273   +1.38202627
 H   +3.43919431   -2.67035454   +1.88908048
 H   +0.21869885   +1.26223615   -0.40372307
 H   +3.64786446   -4.04518459   +2.97164998
 H   +4.94316837   -2.87074737   +2.77944220
 H   +3.78304408   -2.44417104   +4.91114402
 H   +3.51880809   -1.11044618   +3.80594713
 H   +1.52338750   -3.36853800   +4.42012404
 H   -0.17267017   -1.80306495   +4.01738704
 H   +1.96694243   +0.35751065   +3.90152022
 H   +0.21545198   +0.54818963   +3.78282683
 H   +0.81766694   -0.55763381   -0.43822858
 H   -0.99220533   -0.23639961   -0.35576927
 H   +0.36327054   +2.15155116   -0.62816744
22
 * E =  +0.519 kcal/mol ; (11) 181_058_115_121_081
 C   +0.00000000   +0.00000000   +0.00000000
 O   +0.00000000   +0.00000000   +1.38171882
 C   +1.19857671   +0.00000000   +1.99039572
 C   +1.04929673   -0.03656103   +3.48146098
 C   +0.27029898   -1.22934153   +3.93949911
 C   +0.72808286   -2.23531434   +4.67624449
 C   +2.09846964   -2.43165214   +5.22873417
 C   +2.09230277   -2.53401453   +6.74615685
 O   +2.23245100   +0.03694757   +1.38851343
 H   +1.44481856   -3.34206378   +7.08107325
 H   +0.20729619   -1.26415196   -0.40501292
 H   +1.73022972   -1.61320943   +7.19738443
 H   +3.09115093   -2.72844231   +7.12903003
 H   +2.76793618   -1.63542470   +4.91368884
 H   +2.50818122   -3.35361242   +4.81310250
 H   +0.02101877   -3.01839146   +4.92515426
 H   -0.76146433   -1.25311430   +3.61793082
 H   +2.04638069   -0.00069673   +3.90140633
 H   +0.52317489   +0.87271892   +3.77578242
 H   -0.98999635   +0.24541273   -0.35591572
 H   +0.82205069   +0.55147635   -0.43779258
 H   +0.34431891   -2.15348864   -0.63406138
22
 * E =  +0.559 kcal/mol ; (12) 176_157_075_240_280
 C   +0.00000000   +0.00000000   +0.00000000
 O   +0.00000000   +0.00000000   +1.38170002
 C   +1.20080501   +0.00000000   +1.98826634
 C   +1.04159127   +0.09874207   +3.47805281
 C   +2.20375687   -0.43466362   +4.25286054
 C   +3.37259604   +0.17552675   +4.40284950
 C   +3.78121671   +1.48535955   +3.82322540
 C   +4.98818387   +1.34132548   +2.90911580
 O   +2.23157485   -0.03834873   +1.38258315
 H   +4.74638272   +0.69772656   +2.06831911
 H   +0.22146226   +1.26221822   -0.40235222
 H   +5.83209348   +0.90630733   +3.44160904
 H   +5.30124748   +2.30867226   +2.52347493
 H   +4.02449118   +2.17272177   +4.63596918
 H   +2.96013255   +1.92958723   +3.26487361
 H   +4.13096031   -0.33239703   +4.98715849
 H   +2.06369541   -1.40436750   +4.70914823
 H   +0.88167196   +1.15854971   +3.68421163
 H   +0.11623070   -0.39828292   +3.75346914
 H   +0.81661888   -0.55944898   -0.43787141
 H   -0.99252381   -0.23495499   -0.35593408
 H   +0.36939165   +2.15233721   -0.62423069
22
 * E =  +0.603 kcal/mol ; (13) 178_281_094_125_081
 C   +0.00000000   +0.00000000   +0.00000000
 O   +0.00000000   +0.00000000   +1.38112954
 C   +1.20050232   +0.00000000   +1.98659408
 C   +1.04914061   +0.04497338   +3.47712415
 C   +0.73753919   +1.44119930   +3.93143913
 C   -0.47416371   +1.94343794   +4.14012283
 C   -1.78676381   +1.25664051   +3.98318000
 C   -2.62144436   +1.31692752   +5.25234703
 O   +2.23341829   -0.00519732   +1.38151864
 H   -2.78665987   +2.34650297   +5.56406476
 H   +0.21104078   -1.26252550   -0.40446241
 H   -2.12500982   +0.80091383   +6.07085136
 H   -3.59441818   +0.85525087   +5.10332288
 H   -1.65052049   +0.22562595   +3.66659922
 H   -2.33251435   +1.74456597   +3.17342845
 H   -0.53033967   +2.97554230   +4.46687317
 H   +1.59501494   +2.08399292   +4.07363234
 H   +0.26319000   -0.64640231   +3.76699995
 H   +1.98787252   -0.29122676   +3.90434876
 H   -0.99066023   +0.24221028   -0.35649160
 H   +0.82075354   +0.55345348   -0.43786033
 H   +0.34973743   -2.15347764   -0.63028483
22
 * E =  +0.616 kcal/mol ; (14) 182_076_084_122_280
 C   +0.00000000   +0.00000000   +0.00000000
 O   +0.00000000   +0.00000000   +1.38135948
 C   +1.19887998   +0.00000000   +1.98721156
 C   +1.05790822   -0.05232910   +3.47725543
 C   +0.70022816   -1.44349728   +3.92095677
 C   +1.57090705   -2.42552091   +4.12659214
 C   +3.05120289   -2.36632538   +3.96575705
 C   +3.78271822   -2.71228489   +5.25310960
 O   +2.23316165   +0.00302527   +1.38296362
 H   +3.49627741   -3.69824997   +5.61430267
 H   +0.21431040   +1.26249830   -0.40432613
 H   +3.55323224   -1.99491497   +6.03765080
 H   +4.85929454   -2.71367654   +5.10185407
 H   +3.36239724   -1.39142586   +3.59820170
 H   +3.33917708   -3.07861219   +3.19065345
 H   +1.17484001   -3.38070688   +4.45166861
 H   -0.35289745   -1.64333509   +4.05587348
 H   +2.00317372   +0.27060126   +3.89952146
 H   +0.28250241   +0.64469075   +3.78229816
 H   +0.81970990   -0.55513696   -0.43769148
 H   -0.99131547   -0.23989936   -0.35598540
 H   +0.35581771   +2.15248186   -0.62979622
22
 * E =  +0.636 kcal/mol ; (15) 182_206_284_118_280
 C   +0.00000000   +0.00000000   +0.00000000
 O   +0.00000000   +0.00000000   +1.38187366
 C   +1.20105852   +0.00000000   +1.98687426
 C   +1.04724493   -0.04473918   +3.48003796
 C   +2.19917095   +0.55110345   +4.22467026
 C   +3.37950332   -0.02691324   +4.40822996
 C   +3.81594214   -1.35830494   +3.90284428
 C   +4.99359953   -1.23555770   +2.94788382
 O   +2.23134557   -0.01008425   +1.37877071
 H   +5.83506449   -0.73829032   +3.42696831
 H   +0.21318389   +1.26336373   -0.40244188
 H   +4.70619574   -0.65721581   +2.07466799
 H   +5.33062126   -2.21564507   +2.61834442
 H   +2.99591158   -1.86359167   +3.39703736
 H   +4.10192350   -1.98368581   +4.75082340
 H   +4.12747951   +0.52905825   +4.96128497
 H   +2.04080062   +1.54274815   +4.62428161
 H   +0.11121651   +0.44000041   +3.73982333
 H   +0.91902772   -1.09918850   +3.73082516
 H   +0.82012803   -0.55372943   -0.43863539
 H   -0.99127494   -0.24033772   -0.35588194
 H   +0.35421214   +2.15375849   -0.62496398
22
 * E =  +0.683 kcal/mol ; (16) 176_283_277_237_280
 C   +0.00000000   +0.00000000   +0.00000000
 O   +0.00000000   +0.00000000   +1.38162623
 C   +1.19817135   +0.00000000   +1.98920088
 C   +1.05685432   +0.10687414   +3.47624688
 C   +0.74157835   +1.52410696   +3.86776511
 C   +1.64081471   +2.48994923   +4.01943172
 C   +3.11590028   +2.38483422   +3.83793946
 C   +3.87901822   +2.79620032   +5.08694813
 O   +2.23309576   -0.05214079   +1.38808459
 H   +3.64759748   +2.13776666   +5.92110072
 H   +0.21202781   +1.26393477   -0.40403861
 H   +3.62261116   +3.81053781   +5.38702930
 H   +4.95234795   +2.76131401   +4.91767977
 H   +3.40491264   +3.03754688   +3.01238052
 H   +3.39794825   +1.38098954   +3.52952093
 H   +1.27476230   +3.46867977   +4.30744096
 H   -0.30392671   +1.75773677   +4.00669188
 H   +0.26006701   -0.55425847   +3.80505224
 H   +1.99175008   -0.22868012   +3.91182736
 H   +0.82025036   -0.55402417   -0.43791581
 H   -0.99072729   -0.24207515   -0.35611124
 H   +0.35311820   +2.15290984   -0.63265966
22
 * E =  +0.900 kcal/mol ; (17) 176_157_074_132_280
 C   +0.00000000   +0.00000000   +0.00000000
 O   +0.00000000   +0.00000000   +1.38152127
 C   +1.20133948   +0.00000000   +1.98834013
 C   +1.04133842   +0.10828100   +3.47751280
 C   +2.20335352   -0.41935400   +4.25520863
 C   +3.37982842   +0.18236402   +4.37777972
 C   +3.78658617   +1.48389310   +3.77929371
 C   +4.44186948   +2.40768283   +4.79192555
 O   +2.23222788   -0.04464622   +1.38401594
 H   +5.31543512   +1.93856450   +5.24095507
 H   +0.21813898   +1.26243637   -0.40230504
 H   +3.75442536   +2.66040748   +5.59621197
 H   +4.76754588   +3.33360531   +4.32439390
 H   +2.93412630   +1.97605867   +3.31485461
 H   +4.48347573   +1.28050463   +2.96493845
 H   +4.14072989   -0.31941679   +4.96429115
 H   +2.06043707   -1.37929052   +4.73067731
 H   +0.88483497   +1.17069494   +3.67531906
 H   +0.11483468   -0.38443350   +3.75662356
 H   +0.81803639   -0.55737803   -0.43790568
 H   -0.99187071   -0.23731938   -0.35627800
 H   +0.36381242   +2.15322680   -0.62448456
22
 * E =  +0.991 kcal/mol ; (18) 178_155_075_132_081
 C   +0.00000000   +0.00000000   +0.00000000
 O   +0.00000000   +0.00000000   +1.38163298
 C   +1.20105314   +0.00000000   +1.98803178
 C   +1.04249091   +0.05124349   +3.48064648
 C   +2.20247908   -0.51757084   +4.23226210
 C   +3.38004998   +0.07401928   +4.38829813
 C   +3.79175240   +1.40409660   +3.86003246
 C   +4.46251958   +2.26537489   +4.91653042
 O   +2.23227291   +0.00610097   +1.38235994
 H   +5.33663532   +1.76590781   +5.33031500
 H   +0.21019859   -1.26334132   -0.40329157
 H   +3.78418080   +2.47704005   +5.74018206
 H   +4.79088612   +3.21394456   +4.49885906
 H   +2.93850606   +1.92720612   +3.43214129
 H   +4.47952941   +1.24163156   +3.02888484
 H   +4.13888454   -0.46052126   +4.94788673
 H   +2.05711777   -1.50150851   +4.65494496
 H   +0.89668009   +1.10589999   +3.72310372
 H   +0.11352115   -0.44648847   +3.74127305
 H   -0.99071980   +0.24256527   -0.35603342
 H   +0.82119536   +0.55206407   -0.43884459
 H   +0.34866437   -2.15407847   -0.62732216
22
 * E =  +3.892 kcal/mol ; (19) 178_156_068_031_080
 C   +0.00000000   +0.00000000   +0.00000000
 O   +0.00000000   +0.00000000   +1.38172289
 C   +1.20119225   +0.00000000   +1.98748105
 C   +1.04505826   +0.04492241   +3.47914903
 C   +2.21349928   -0.51779813   +4.22537373
 C   +3.44929343   -0.03751155   +4.31154632
 C   +4.06494600   +1.19761693   +3.73391868
 C   +3.17616697   +2.41190925   +3.53905950
 O   +2.23169863   +0.00682867   +1.37933839
 H   +2.60634460   +2.63487402   +4.43929886
 H   +0.21150662   -1.26323147   -0.40328491
 H   +2.48661923   +2.28620655   +2.71019698
 H   +3.78649007   +3.28282874   +3.31256024
 H   +4.51762352   +0.92584812   +2.77846431
 H   +4.89294005   +1.47824507   +4.38432665
 H   +4.14488342   -0.65322199   +4.86865279
 H   +2.02102332   -1.45972418   +4.71990285
 H   +0.86726627   +1.09058858   +3.73037153
 H   +0.13007621   -0.48061944   +3.73528020
 H   -0.99097375   +0.24166331   -0.35588271
 H   +0.82057189   +0.55273543   -0.43906632
 H   +0.35114348   -2.15359409   -0.62757674
22
 * E =  +6.582 kcal/mol ; (20) 356_084_234_241_071
 C   +0.00000000   +0.00000000   +0.00000000
 O   +0.00000000   +0.00000000   +1.37554122
 C   +1.14517335   +0.00000000   +2.08937937
 C   +2.45130982   -0.09956673   +1.34357120
 C   +2.90874634   +1.24520506   +0.86474790
 C   +3.22803949   +1.57981996   -0.38125441
 C   +3.19680988   +0.72269892   -1.60129953
 C   +4.57346730   +0.57721922   -2.23195526
 O   +1.07320299   +0.09138748   +3.27698282
 H   +5.26259906   +0.08521851   -1.55014294
 H   +0.41647511   -1.17967844   -0.46011393
 H   +4.99309234   +1.54931300   -2.48221493
 H   +4.52342161   -0.00950206   -3.14563668
 H   +2.52345938   +1.17953397   -2.32978193
 H   +2.78745800   -0.26186904   -1.38299245
 H   +3.56984932   +2.59525506   -0.54382268
 H   +2.99991771   +1.99495628   +1.63924311
 H   +3.16166136   -0.48293022   +2.07142541
 H   +2.38086105   -0.81556202   +0.53131660
 H   -1.02231325   +0.05602133   -0.34716734
 H   +0.67088815   +0.72156473   -0.45320801
 H   +0.72425293   -2.01963036   -0.76359517
22
 * E =  +6.586 kcal/mol ; (21) 356_085_232_131_071
 C   +0.00000000   +0.00000000   +0.00000000
 O   +0.00000000   +0.00000000   +1.37538097
 C   +1.14643202   +0.00000000   +2.08776637
 C   +2.45042483   -0.09770658   +1.33871660
 C   +2.90947447   +1.24837783   +0.86517252
 C   +3.26247344   +1.57687169   -0.37324351
 C   +3.25221557   +0.71840796   -1.59344522
 C   +2.57677042   +1.40673895   -2.76872624
 O   +1.07609926   +0.09090877   +3.27544912
 H   +3.07086934   +2.34631302   -3.00710419
 H   +0.41314723   -1.18063278   -0.46059249
 H   +1.53469268   +1.63269119   -2.55067252
 H   +2.60424732   +0.78134685   -3.65712929
 H   +2.76913115   -0.23775836   -1.39861347
 H   +4.28321951   +0.48578958   -1.86632992
 H   +3.60344659   +2.59331259   -0.53218554
 H   +2.97879356   +2.00206169   +1.63809513
 H   +3.16287282   -0.48577742   +2.06223527
 H   +2.37935662   -0.81029170   +0.52358018
 H   -1.02205814   +0.05951185   -0.34749827
 H   +0.67276313   +0.72043948   -0.45273404
 H   +0.71970490   -2.02103226   -0.76440536
22
 * E =  +7.129 kcal/mol ; (22) 000_172_218_123_289
 C   +0.00000000   +0.00000000   +0.00000000
 O   +0.00000000   +0.00000000   +1.37430792
 C   +1.14555871   +0.00000000   +2.09267821
 C   +2.43805603   -0.00379651   +1.32212893
 C   +3.61575040   +0.19466781   +2.21444893
 C   +4.69870016   +0.90738207   +1.92936254
 C   +4.99427765   +1.68388743   +0.69109983
 C   +5.28908231   +3.14503507   +0.99135703
 O   +1.06548963   -0.01943163   +3.28177169
 H   +6.12206232   +3.23988579   +1.68509524
 H   +0.40135163   +1.18953570   -0.44793068
 H   +4.42749857   +3.63069189   +1.44297293
 H   +5.54761900   +3.68727096   +0.08510944
 H   +4.17692473   +1.61234906   -0.02333813
 H   +5.86296427   +1.24043911   +0.20076638
 H   +5.47101071   +0.94964290   +2.68842826
 H   +3.54935810   -0.29739722   +3.17347546
 H   +2.50368088   -0.97180772   +0.81562319
 H   +2.39082181   +0.74333557   +0.53437242
 H   +0.67813090   -0.70978572   -0.46331401
 H   -1.02049832   -0.07389545   -0.34896289
 H   +0.69705984   +2.04197671   -0.72482123
22
 * E =  +7.235 kcal/mol ; (23) 000_172_223_240_289
 C   +0.00000000   +0.00000000   +0.00000000
 O   +0.00000000   +0.00000000   +1.37425012
 C   +1.14593730   +0.00000000   +2.09230928
 C   +2.43866478   -0.00425964   +1.32160896
 C   +3.61520730   +0.19051790   +2.21565840
 C   +4.66008350   +0.97362164   +1.97678851
 C   +4.92112687   +1.83447942   +0.78747240
 C   +6.20151344   +1.43821202   +0.06793762
 O   +1.06675486   -0.02005196   +3.28136764
 H   +6.13470024   +0.42303387   -0.31628883
 H   +0.40294602   +1.18882572   -0.44818665
 H   +7.05578061   +1.47981131   +0.74061887
 H   +6.40369701   +2.10420911   -0.76740682
 H   +5.00959137   +2.86979534   +1.12058940
 H   +4.08750121   +1.80868848   +0.08946593
 H   +5.43769942   +0.99370401   +2.73130949
 H   +3.58157987   -0.36687349   +3.14012829
 H   +2.50423394   -0.97339448   +0.81732015
 H   +2.39297753   +0.74238044   +0.53390816
 H   +0.67762247   -0.71044590   -0.46309313
 H   -1.02049768   -0.07292981   -0.34917723
 H   +0.70023462   +2.04059868   -0.72569836
22
 * E =  +7.449 kcal/mol ; (24) 002_078_072_249_071
 C   +0.00000000   +0.00000000   +0.00000000
 O   +0.00000000   +0.00000000   +1.37452552
 C   +1.14482169   +0.00000000   +2.08838205
 C   +2.45465309   +0.04346368   +1.34268324
 C   +2.77728203   +1.43319646   +0.85999256
 C   +3.15107417   +2.44296703   +1.63909224
 C   +3.30890598   +2.42376242   +3.12039083
 C   +2.24963610   +3.26926808   +3.81337556
 O   +1.06596140   -0.01068038   +3.27984980
 H   +1.25841583   +2.85905961   +3.63915623
 H   +0.41847650   -1.18633907   -0.44269040
 H   +2.26286192   +4.29520236   +3.45032153
 H   +2.41732784   +3.29142639   +4.88704389
 H   +4.29719314   +2.81357725   +3.36834825
 H   +3.25672981   +1.40730721   +3.50128629
 H   +3.35094381   +3.39234281   +1.15634429
 H   +2.70353373   +1.60760840   -0.20453166
 H   +3.20158425   -0.30492904   +2.04877947
 H   +2.43795964   -0.65172009   +0.50769848
 H   -1.02166769   +0.05715683   -0.34867891
 H   +0.66535616   +0.72248248   -0.45978830
 H   +0.72288584   -2.03711089   -0.71105435
22
 * E =  +7.614 kcal/mol ; (25) 359_282_288_230_289
 C   +0.00000000   +0.00000000   +0.00000000
 O   +0.00000000   +0.00000000   +1.37436088
 C   +1.14495011   +0.00000000   +2.08804680
 C   +2.45557438   -0.01319305   +1.34147295
 C   +2.80706623   -1.38310341   +0.82528888
 C   +3.20404387   -2.40318856   +1.57891909
 C   +3.38226640   -2.41448701   +3.05754046
 C   +4.73631049   -2.97373054   +3.46239885
 O   +1.06712508   -0.00384238   +3.27933728
 H   +5.54593259   -2.35954711   +3.07470196
 H   +0.40772077   +1.18937242   -0.44349407
 H   +4.87548286   -3.98351930   +3.08057317
 H   +4.83270441   -3.01194160   +4.54431150
 H   +2.59485534   -3.03086545   +3.49570145
 H   +3.23778373   -1.42003122   +3.47201433
 H   +3.43715615   -3.33258373   +1.07192569
 H   +2.73895253   -1.53273047   -0.24332705
 H   +2.42874336   +0.70164416   +0.52329108
 H   +3.19618533   +0.33007915   +2.05705656
 H   +0.67172721   -0.71670447   -0.45946805
 H   -1.02109721   -0.06583962   -0.34886989
 H   +0.70366976   +2.04318025   -0.71359662
22
 * E =  +7.806 kcal/mol ; (26) 000_191_288_118_072
 C   +0.00000000   +0.00000000   +0.00000000
 O   +0.00000000   +0.00000000   +1.37434219
 C   +1.14340777   +0.00000000   +2.09788603
 C   +2.43935297   -0.00679259   +1.32446258
 C   +3.64233055   -0.27674464   +2.17032987
 C   +4.17282161   +0.57368925   +3.03916146
 C   +3.67163925   +1.93487128   +3.37680301
 C   +3.28659130   +2.03888098   +4.84469225
 O   +1.05558905   +0.03493465   +3.28542563
 H   +4.13272640   +1.80244220   +5.48724685
 H   +0.38379968   -1.19486665   -0.44726110
 H   +2.48196212   +1.34492136   +5.06926731
 H   +2.95420563   +3.04497353   +5.08910458
 H   +2.81090036   +2.19013547   +2.76159167
 H   +4.45019932   +2.66707700   +3.15372514
 H   +5.04501577   +0.24627290   +3.59236600
 H   +4.09123178   -1.25272031   +2.05624825
 H   +2.36942909   -0.73619860   +0.52127209
 H   +2.51743804   +0.96729084   +0.83568665
 H   -1.01970911   +0.08737394   -0.34841216
 H   +0.68693389   +0.70083535   -0.46376976
 H   +0.66479196   -2.05257475   -0.72389199
22
 * E =  +7.919 kcal/mol ; (27) 355_074_231_126_272
 C   +0.00000000   +0.00000000   +0.00000000
 O   +0.00000000   +0.00000000   +1.37444571
 C   +1.11961951   +0.00000000   +2.12535773
 C   +2.45609101   -0.10871402   +1.43641793
 C   +2.84077379   +1.16777535   +0.75482197
 C   +3.24048664   +1.31872589   -0.50232016
 C   +3.37434432   +0.28136221   -1.56436098
 C   +2.60140813   +0.65435943   -2.81993015
 O   +1.00152259   +0.08630152   +3.31026890
 H   +2.94588425   +1.60594196   -3.21896601
 H   +0.04899323   +1.26194225   -0.43568118
 H   +1.53827009   +0.75583494   -2.61298062
 H   +2.72652063   -0.09685362   -3.59561035
 H   +3.05508524   -0.69594839   -1.20606048
 H   +4.43055689   +0.17433986   -1.81758673
 H   +3.49599011   +2.32401329   -0.81577038
 H   +2.79896853   +2.04633277   +1.38482066
 H   +3.15961434   -0.32693294   +2.23530466
 H   +2.46668557   -0.95315858   +0.75225662
 H   +0.84803133   -0.48282462   -0.47128970
 H   -0.96110145   -0.35087530   -0.35070389
 H   +0.06102096   +2.15484828   -0.71904377
22
 * E =  +7.942 kcal/mol ; (28) 359_076_238_226_272
 C   +0.00000000   +0.00000000   +0.00000000
 O   +0.00000000   +0.00000000   +1.37408140
 C   +1.11693894   +0.00000000   +2.12920804
 C   +2.46090332   -0.01393349   +1.44530293
 C   +2.79184379   +1.33682473   +0.89023791
 C   +3.05773486   +1.64645972   -0.37317454
 C   +3.08997672   +0.74678175   -1.56051528
 C   +4.32072365   +0.97518251   -2.42214005
 O   +0.99179810   +0.02909004   +3.31614146
 H   +5.23049002   +0.76090407   -1.86659383
 H   +0.05131197   +1.25505393   -0.46000796
 H   +4.37356355   +2.00850478   -2.75848709
 H   +4.30541882   +0.33930048   -3.30348948
 H   +2.19529392   +0.93788758   -2.15984013
 H   +3.04602210   -0.29943053   -1.26298754
 H   +3.27062170   +2.68736763   -0.58628229
 H   +2.80654903   +2.13145259   +1.62411213
 H   +3.16612477   -0.27650353   +2.22868147
 H   +2.50519444   -0.78853090   +0.68503528
 H   +0.84218928   -0.49234010   -0.47115798
 H   -0.96342736   -0.34624608   -0.34874436
 H   +0.05666125   +2.13087997   -0.79111076
22
 * E =  +8.064 kcal/mol ; (29) 355_072_074_250_275
 C   +0.00000000   +0.00000000   +0.00000000
 O   +0.00000000   +0.00000000   +1.37360238
 C   +1.12459266   +0.00000000   +2.11756626
 C   +2.45491367   -0.11910371   +1.42014946
 C   +2.81554475   +1.13816445   +0.67763097
 C   +3.22914805   +2.26104729   +1.25493262
 C   +3.39193074   +2.51094875   +2.71503763
 C   +2.34985517   +3.49082612   +3.23641656
 O   +1.01378400   +0.09953016   +3.30284529
 H   +1.35037424   +3.07566903   +3.13615752
 H   +0.11386937   +1.25404270   -0.44419367
 H   +2.38329971   +4.43098421   +2.68942783
 H   +2.51770400   +3.70813326   +4.28812952
 H   +4.38812584   +2.91863700   +2.89168016
 H   +3.31988164   +1.58360809   +3.27811941
 H   +3.44608785   +3.10104172   +0.60597411
 H   +2.71107299   +1.11855232   -0.39785847
 H   +3.17076383   -0.33179602   +2.20673556
 H   +2.45277602   -0.97267547   +0.74570898
 H   +0.81914593   -0.53306554   -0.47043354
 H   -0.97782321   -0.30004430   -0.35104549
 H   +0.18007675   +2.14023987   -0.74373898
22
 * E =  +8.165 kcal/mol ; (30) 355_070_075_126_275
 C   +0.00000000   +0.00000000   +0.00000000
 O   +0.00000000   +0.00000000   +1.37351831
 C   +1.12590033   +0.00000000   +2.11559647
 C   +2.45605543   -0.10801292   +1.41490741
 C   +2.81030451   +1.13274521   +0.64314785
 C   +3.23520216   +2.26624199   +1.19030657
 C   +3.43831968   +2.54421007   +2.63960682
 C   +4.84182743   +3.05002389   +2.93253354
 O   +1.01735067   +0.08296054   +3.30208801
 H   +5.06303991   +3.94885450   +2.36000245
 H   +0.11017267   +1.25392546   -0.44531862
 H   +5.58890687   +2.30267067   +2.67521199
 H   +4.95613569   +3.29088632   +3.98628194
 H   +3.21637118   +1.66470702   +3.23941118
 H   +2.71519955   +3.30173424   +2.94748166
 H   +3.46496177   +3.08578520   +0.51941730
 H   +2.69874622   +1.08955925   -0.43091081
 H   +3.17571476   -0.29765664   +2.20411607
 H   +2.46103732   -0.97614639   +0.75864264
 H   +0.82028663   -0.53216952   -0.46960942
 H   -0.97711125   -0.30245188   -0.35101657
 H   +0.17128446   +2.13976363   -0.74732970
22
 * E =  +8.169 kcal/mol ; (31) 001_168_071_136_288
 C   +0.00000000   +0.00000000   +0.00000000
 O   +0.00000000   +0.00000000   +1.37414044
 C   +1.14494813   +0.00000000   +2.09682125
 C   +2.43990660   +0.01213662   +1.32141760
 C   +3.64100965   +0.28546894   +2.16764961
 C   +4.15759132   -0.55717019   +3.05238263
 C   +3.65072071   -1.91608648   +3.38900272
 C   +4.76216628   -2.94641160   +3.48660363
 O   +1.05957228   -0.03921045   +3.28403869
 H   +5.49890209   -2.65547586   +4.23304225
 H   +0.38127434   +1.19487411   -0.44799768
 H   +5.28175730   -3.05687413   +2.53723584
 H   +4.37070027   -3.91988613   +3.77104636
 H   +2.90428638   -2.23653657   +2.66356623
 H   +3.12137465   -1.85233260   +4.34099088
 H   +5.02611864   -0.22887102   +3.61101761
 H   +4.09430136   +1.25867217   +2.04813528
 H   +2.52144236   -0.96390354   +0.83583407
 H   +2.36756641   +0.73943858   +0.51673701
 H   +0.68837069   -0.69947419   -0.46378306
 H   -1.01946808   -0.08956228   -0.34866345
 H   +0.66103281   +2.05312886   -0.72596020
22
 * E =  +8.391 kcal/mol ; (32) 002_181_067_139_070
 C   +0.00000000   +0.00000000   +0.00000000
 O   +0.00000000   +0.00000000   +1.37393955
 C   +1.14367234   +0.00000000   +2.10029344
 C   +2.43788199   +0.05264229   +1.32636803
 C   +3.65577173   +0.02165289   +2.19248642
 C   +4.03430124   -1.02080938   +2.92006553
 C   +3.32634889   -2.32684980   +3.02820747
 C   +4.27737219   -3.51048935   +3.02298037
 O   +1.05327317   -0.04555120   +3.28670257
 H   +4.99376190   -3.43831037   +3.83918492
 H   +0.42704634   -1.18238665   -0.44220557
 H   +4.84026215   -3.55912786   +2.09337872
 H   +3.73807592   -4.44719513   +3.13844847
 H   +2.59676314   -2.43377195   +2.22612594
 H   +2.74736580   -2.32196186   +3.95354115
 H   +4.93052771   -0.91876786   +3.52030121
 H   +4.24338126   +0.92689621   +2.23105135
 H   +2.43406050   -0.77812818   +0.61858080
 H   +2.43166586   +0.95635741   +0.71841194
 H   -1.02225966   +0.04973652   -0.34847356
 H   +0.66022828   +0.72301764   -0.46797155
 H   +0.73473878   -2.03400002   -0.70901095
