22
 * E =  +0.000 kcal/mol ; (1) 183_201_138_115
 C   +0.00000000   +0.00000000   +0.00000000
 O   +0.00000000   +0.00000000   +1.41768190
 C   +1.20243420   +0.00000000   +1.98636867
 C   +1.10021535   -0.06230739   +3.48208481
 C   +2.34115754   +0.43181067   +4.15625521
 C   +2.36717301   +1.19913240   +5.22389145
 C   +1.36145439   +1.82290147   +6.10437450
 C   +1.40452292   +1.27084166   +7.52124397
 O   +2.22533676   +0.01494307   +1.35920555
 H   +2.38790241   +1.41530212   +7.96177735
 H   +0.50727378   +0.88221249   -0.37712691
 H   +1.18998710   +0.20534175   +7.52951207
 H   +0.67505616   +1.77093221   +8.15326809
 H   +0.36423473   +1.68294264   +5.68020501
 H   +1.53449592   +2.89939857   +6.13003553
 H   +3.68594698   +1.50043619   +5.64453154
 H   +3.27249221   +0.11733083   +3.70248494
 H   +0.20775831   +0.46770838   +3.79990809
 H   +0.93508869   -1.11489870   +3.72555874
 H   +0.50407516   -0.88387243   -0.37800977
 H   -1.04089731   +0.00187508   -0.29575982
 H   +4.50779046   +1.68646497   +5.88070054
22
 * E =  +0.081 kcal/mol ; (2) 181_057_119_243
 C   +0.00000000   +0.00000000   +0.00000000
 O   +0.00000000   +0.00000000   +1.41706748
 C   +1.20147909   +0.00000000   +1.98817440
 C   +1.10218975   -0.01510277   +3.48553256
 C   +0.31251527   -1.19008526   +3.98693723
 C   +0.78065718   -2.13322002   +4.77538916
 C   +2.07474977   -2.43807444   +5.41322508
 C   +2.66354952   -3.75507900   +4.93103163
 O   +2.22572422   +0.01495661   +1.36267857
 H   +2.85826143   -3.72326162   +3.86243107
 H   +0.50121308   +0.88546785   -0.37801438
 H   +1.97915777   -4.57796318   +5.12239105
 H   +3.59885675   -3.96843668   +5.44192385
 H   +1.93471877   -2.47609943   +6.49420703
 H   +2.77793641   -1.62431969   +5.22275021
 H   -0.19574492   -3.10723303   +5.08385954
 H   -0.71665294   -1.24137901   +3.65432733
 H   +2.11231783   -0.00491618   +3.87676844
 H   +0.60646886   +0.90748774   +3.79002129
 H   +0.50979334   -0.88089975   -0.37704379
 H   -1.04074183   -0.00536125   -0.29628641
 H   -0.82159140   -3.69339520   +5.26829175
22
 * E =  +0.118 kcal/mol ; (3) 181_056_118_117
 C   +0.00000000   +0.00000000   +0.00000000
 O   +0.00000000   +0.00000000   +1.41711728
 C   +1.20158260   +0.00000000   +1.98796761
 C   +1.10277369   -0.01238757   +3.48548719
 C   +0.29300732   -1.17116670   +3.99213658
 C   +0.74847897   -2.12584387   +4.77412407
 C   +2.03728976   -2.44890318   +5.41362563
 C   +1.95514457   -2.43310741   +6.93229185
 O   +2.22564989   +0.01514987   +1.36230398
 H   +1.20666286   -3.13765740   +7.28654326
 H   +0.49964426   +0.88636874   -0.37801216
 H   +1.68168334   -1.44615115   +7.29628410
 H   +2.91048780   -2.70631718   +7.37280318
 H   +2.80218135   -1.74864445   +5.07082860
 H   +2.35737684   -3.43566679   +5.07730865
 H   -0.24502013   -3.08012203   +5.08983612
 H   -0.73978633   -1.20071759   +3.66832302
 H   +2.11321125   -0.01765494   +3.87615720
 H   +0.62335204   +0.91950281   +3.78790247
 H   +0.51136626   -0.88000478   -0.37697110
 H   -1.04074083   -0.00716215   -0.29626561
 H   -0.87489462   -3.66585559   +5.26123556
22
 * E =  +0.293 kcal/mol ; (4) 177_268_277_109
 C   +0.00000000   +0.00000000   +0.00000000
 O   +0.00000000   +0.00000000   +1.41742990
 C   +1.19997743   +0.00000000   +1.98773453
 C   +1.11721268   +0.07026852   +3.48370254
 C   +1.17094727   +1.51223017   +3.92626122
 C   +2.28700699   +2.19257578   +4.07822460
 C   +3.71930649   +1.89588795   +3.89664728
 C   +4.30777479   +2.62495384   +2.69771561
 O   +2.22636541   -0.01740261   +1.36284275
 H   +4.17869344   +3.70041027   +2.79384224
 H   +0.50350140   +0.88473032   -0.37671391
 H   +3.82060639   +2.29867031   +1.78354109
 H   +5.37137857   +2.41860440   +2.61011227
 H   +3.84820086   +0.81957759   +3.76364287
 H   +4.26033075   +2.17469437   +4.80157411
 H   +2.05910706   +3.52994670   +4.47789450
 H   +0.22179135   +2.00379052   +4.09511899
 H   +0.19664229   -0.39297764   +3.82370326
 H   +1.96226135   -0.48482356   +3.87854736
 H   +0.50784386   -0.88181466   -0.37743207
 H   -1.04079160   -0.00227748   -0.29599172
 H   +1.89379464   +4.35126212   +4.73452194
22
 * E =  +0.441 kcal/mol ; (5) 183_092_250_108
 C   +0.00000000   +0.00000000   +0.00000000
 O   +0.00000000   +0.00000000   +1.41721325
 C   +1.20359284   +0.00000000   +1.98450356
 C   +1.11434818   -0.07465821   +3.48045448
 C   +1.17016194   -1.51401309   +3.91620640
 C   +0.16228038   -2.18488260   +4.43016986
 C   -1.24751864   -1.88839697   +4.74384485
 C   -2.20678600   -2.58073444   +3.78706498
 O   +2.22628838   +0.02242169   +1.35600418
 H   -2.06330542   -3.65829487   +3.80631802
 H   +0.51007610   +0.88025935   -0.37815009
 H   -2.04318348   -2.23731683   +2.76910896
 H   -3.23866499   -2.37281266   +4.05855590
 H   -1.40903591   -0.80867453   +4.71301367
 H   -1.45844377   -2.20240016   +5.76646950
 H   +0.49865922   -3.52383753   +4.72923313
 H   +2.11955333   -2.01373014   +3.76833564
 H   +1.96565531   +0.46673043   +3.88394831
 H   +0.19602300   +0.39750879   +3.81270877
 H   +0.50123198   -0.88598288   -0.37688046
 H   -1.04073812   +0.00511164   -0.29655581
 H   +0.72885829   -4.34858062   +4.91764725
22
 * E =  +1.769 kcal/mol ; (6) 177_284_265_356
 C   +0.00000000   +0.00000000   +0.00000000
 O   +0.00000000   +0.00000000   +1.41710199
 C   +1.20046496   +0.00000000   +1.98809328
 C   +1.10616467   +0.07129419   +3.48362635
 C   +0.75714559   +1.47443654   +3.91065722
 C   +1.58339691   +2.43119851   +4.27746645
 C   +3.02824919   +2.67804179   +4.45182069
 C   +3.96081453   +1.49932573   +4.22218832
 O   +2.22592868   -0.02508824   +1.36261927
 H   +3.83991180   +1.08133526   +3.22612085
 H   +0.51188001   +0.87981815   -0.37693810
 H   +3.78914017   +0.71160926   +4.95178394
 H   +4.99271483   +1.82476656   +4.32958500
 H   +3.18152099   +3.07718008   +5.45580253
 H   +3.29973448   +3.49089324   +3.77577759
 H   +0.87661217   +3.58536597   +4.57224393
 H   -0.29901561   +1.71356527   +3.87349398
 H   +0.32647228   -0.60802006   +3.81936893
 H   +2.05494739   -0.25436842   +3.88658392
 H   +0.49894591   -0.88671992   -0.37795006
 H   -1.04075658   +0.00762549   -0.29615468
 H   +0.39724732   +4.31328143   +4.75442693
22
 * E =  +2.134 kcal/mol ; (7) 183_094_252_359
 C   +0.00000000   +0.00000000   +0.00000000
 O   +0.00000000   +0.00000000   +1.41721026
 C   +1.20375098   +0.00000000   +1.98544274
 C   +1.11288714   -0.07901286   +3.48117177
 C   +1.21479452   -1.51947645   +3.91024116
 C   +0.26450433   -2.29899652   +4.38003152
 C   -1.17579572   -2.27493362   +4.70314992
 C   -1.91473531   -0.96633253   +4.47511932
 O   +2.22606083   +0.02624840   +1.35670079
 H   -1.82897695   -0.63725515   +3.44279706
 H   +0.50301344   +0.88430800   -0.37819920
 H   -1.53682001   -0.17859790   +5.12205030
 H   -2.97022724   -1.09753866   +4.70103769
 H   -1.29050360   -2.58309491   +5.74368610
 H   -1.65130872   -3.06376005   +4.11757222
 H   +0.76965001   -3.56003570   +4.64528605
 H   +2.20140886   -1.95212168   +3.78913201
 H   +1.95641132   +0.47461386   +3.88446037
 H   +0.19172092   +0.37893610   +3.81513185
 H   +0.50832460   -0.88199300   -0.37664425
 H   -1.04071610   -0.00309391   -0.29674457
 H   +1.11686127   -4.36458342   +4.80553803
22
 * E =  +8.373 kcal/mol ; (8) 003_085_233_244
 C   +0.00000000   +0.00000000   +0.00000000
 O   +0.00000000   +0.00000000   +1.41016274
 C   +1.13910908   +0.00000000   +2.10776985
 C   +2.44758930   +0.06061749   +1.35648608
 C   +2.80219324   +1.48744170   +1.03346006
 C   +3.09473319   +1.95165404   -0.16261324
 C   +3.18769713   +1.38231800   -1.52010736
 C   +4.59914641   +1.44563862   -2.08394372
 O   +1.09174238   -0.01095423   +3.30294963
 H   +5.28792394   +0.87203231   -1.46964769
 H   +0.58070391   +0.82729619   -0.39850009
 H   +4.95583368   +2.47195249   -2.11523421
 H   +4.62868252   +1.04700244   -3.09452823
 H   +2.51035437   +1.92803634   -2.17892054
 H   +2.83710254   +0.34657256   -1.50932046
 H   +3.40911897   +3.33139181   -0.14899327
 H   +2.82499486   +2.16180053   +1.88116138
 H   +3.19057724   -0.34994552   +2.03454521
 H   +2.42959967   -0.55007747   +0.45857856
 H   +0.37307602   -0.94327615   -0.39398707
 H   -1.03611100   +0.11587265   -0.29291146
 H   +3.58907181   +4.18734912   -0.12061500
22
 * E =  +8.384 kcal/mol ; (9) 357_275_127_233
 C   +0.00000000   +0.00000000   +0.00000000
 O   +0.00000000   +0.00000000   +1.40991406
 C   +1.14022718   +0.00000000   +2.10617973
 C   +2.44679853   -0.06521507   +1.35249060
 C   +2.80557856   -1.49482650   +1.04680418
 C   +3.10756887   -1.97208098   -0.14174499
 C   +3.18982879   -1.42383309   -1.50904959
 C   +2.37821132   -2.22751636   -2.51328395
 O   +1.09448617   +0.01343676   +3.30132254
 H   +1.32329311   -2.23878587   -2.24909675
 H   +0.36152134   +0.94793016   -0.39361141
 H   +2.71927021   -3.25897974   -2.54730644
 H   +2.47326057   -1.80742570   -3.51089739
 H   +4.23492786   -1.40639382   -1.82038230
 H   +2.85629618   -0.38207168   -1.50609117
 H   +3.44247485   -3.34717374   -0.10134024
 H   +2.82963195   -2.15849080   +1.90286922
 H   +2.42663771   +0.53452714   +0.44742840
 H   +3.19097326   +0.35538347   +2.02319504
 H   +0.59116563   -0.81993523   -0.39863683
 H   -1.03444645   -0.12908313   -0.29346151
 H   +3.65226650   -4.19501704   -0.04705252
22
 * E =  +8.548 kcal/mol ; (10) 003_186_138_116
 C   +0.00000000   +0.00000000   +0.00000000
 O   +0.00000000   +0.00000000   +1.40865057
 C   +1.14080725   +0.00000000   +2.10939302
 C   +2.43215284   +0.06749881   +1.33256338
 C   +3.62396492   -0.09116419   +2.22244284
 C   +4.68962366   -0.80524105   +1.93395088
 C   +5.13076885   -1.64512964   +0.80462029
 C   +6.35578493   -1.08054076   +0.10127242
 O   +1.08928964   -0.02298059   +3.30259810
 H   +7.18364908   -0.97217950   +0.79747193
 H   +0.56044694   +0.83902053   -0.40544455
 H   +6.14562233   -0.10060269   -0.31948371
 H   +6.67621676   -1.73670580   -0.70393184
 H   +4.31265949   -1.76303592   +0.08931193
 H   +5.35609542   -2.64501240   +1.17718671
 H   +5.66432084   -0.76362670   +2.96132691
 H   +3.57018400   +0.42932843   +3.16947917
 H   +2.42754055   -0.67240918   +0.53548452
 H   +2.46038300   +1.04228917   +0.83807443
 H   +0.39481059   -0.93225014   -0.39809927
 H   -1.03779100   +0.09518469   -0.29389241
 H   +6.24748149   -0.73747186   +3.61259123
22
 * E =  +8.558 kcal/mol ; (11) 359_277_287_108
 C   +0.00000000   +0.00000000   +0.00000000
 O   +0.00000000   +0.00000000   +1.40951083
 C   +1.14041763   +0.00000000   +2.10395356
 C   +2.45024675   -0.01799770   +1.35331610
 C   +2.81832545   -1.42816131   +0.95284174
 C   +3.23620725   -2.34247321   +1.80322594
 C   +3.47069768   -2.37564671   +3.25781228
 C   +2.42074315   -3.19656814   +3.99251989
 O   +1.09312752   -0.01823518   +3.30026826
 H   +2.38847325   -4.21640157   +3.61661386
 H   +0.36327975   +0.94572980   -0.39594741
 H   +1.43803868   -2.75058756   +3.87040933
 H   +2.64462990   -3.23428702   +5.05524881
 H   +3.46584208   -1.35388436   +3.64288698
 H   +4.46217176   -2.78863795   +3.44694626
 H   +3.50418549   -3.57850163   +1.17512895
 H   +2.72548130   -1.68977794   -0.09364608
 H   +2.41927140   +0.62361783   +0.47734650
 H   +3.18668103   +0.38655270   +2.04000857
 H   +0.58629074   -0.82235843   -0.40075908
 H   -1.03422260   -0.12936745   -0.29365954
 H   +3.67420883   -4.32940635   +0.75544325
22
 * E =  +8.880 kcal/mol ; (12) 358_281_289_235
 C   +0.00000000   +0.00000000   +0.00000000
 O   +0.00000000   +0.00000000   +1.40930645
 C   +1.14012467   +0.00000000   +2.10442834
 C   +2.44996151   -0.04163958   +1.35349055
 C   +2.78323244   -1.44049918   +0.88736990
 C   +3.15243971   -2.41428301   +1.69289957
 C   +3.36829338   -2.53566991   +3.14554662
 C   +4.75875015   -3.04642868   +3.48907368
 O   +1.09175299   +0.00834100   +3.30063734
 H   +5.52506839   -2.36477256   +3.12877822
 H   +0.38650503   +0.93641529   -0.39629152
 H   +4.93966034   -4.01936521   +3.03845883
 H   +4.87366726   -3.14657851   +4.56492208
 H   +2.61735890   -3.21354447   +3.55338063
 H   +3.18111279   -1.56818306   +3.61588221
 H   +3.41081091   -3.61773220   +0.99561728
 H   +2.71498539   -1.64070175   -0.17442806
 H   +2.43804342   +0.63803723   +0.50565050
 H   +3.19793222   +0.31351075   +2.05491217
 H   +0.56528458   -0.83671652   -0.40068468
 H   -1.03721161   -0.10315327   -0.29351221
 H   +3.55651906   -4.34694609   +0.53142174
22
 * E =  +9.102 kcal/mol ; (13) 356_281_349_270
 C   +0.00000000   +0.00000000   +0.00000000
 O   +0.00000000   +0.00000000   +1.41231663
 C   +1.14150832   +0.00000000   +2.10832089
 C   +2.43742174   -0.08308807   +1.35073818
 C   +2.80235553   -1.47141261   +0.89339038
 C   +2.25097223   -2.61982158   +1.22799034
 C   +1.15898148   -3.11021634   +2.09554461
 C   +1.64518025   -3.42553134   +3.50348443
 O   +1.09240084   +0.03549121   +3.30359023
 H   +1.99328905   -2.52143927   +3.99449509
 H   +0.34289847   +0.95571618   -0.39001718
 H   +2.46018041   -4.14488491   +3.48313581
 H   +0.83687585   -3.84428972   +4.09733502
 H   +0.73916382   -4.00883116   +1.64254411
 H   +0.34625279   -2.38547424   +2.14156549
 H   +2.92988197   -3.67055798   +0.63253668
 H   +3.65878916   -1.50227425   +0.22902182
 H   +2.42323104   +0.58242560   +0.48867180
 H   +3.20726660   +0.28156671   +2.02600907
 H   +0.60834556   -0.80787963   -0.39789727
 H   -1.03176932   -0.14844209   -0.29307068
 H   +3.37533533   -4.32528720   +0.22873657
22
 * E =  +9.148 kcal/mol ; (14) 357_169_067_244
 C   +0.00000000   +0.00000000   +0.00000000
 O   +0.00000000   +0.00000000   +1.40887100
 C   +1.13610795   +0.00000000   +2.11816868
 C   +2.43143007   -0.07702845   +1.34109494
 C   +3.65600862   +0.19151288   +2.16566363
 C   +4.08740137   -0.58633483   +3.13374874
 C   +3.61892741   -1.83840816   +3.75212611
 C   +3.24467063   -1.64918473   +5.21420496
 O   +1.07020814   +0.01753991   +3.31036390
 H   +2.43746787   -0.92866674   +5.29978932
 H   +0.38025477   +0.93833168   -0.39776425
 H   +4.09539816   -1.28710914   +5.78674403
 H   +2.92023975   -2.59045912   +5.65060027
 H   +4.39937486   -2.59559870   +3.66265170
 H   +2.75119934   -2.20642586   +3.19868316
 H   +5.27099886   -0.09071583   +3.73742848
 H   +4.20345081   +1.09664611   +1.93748346
 H   +2.47174816   -1.07806849   +0.90520422
 H   +2.39313755   +0.60799749   +0.49786263
 H   +0.57273824   -0.83028779   -0.40606180
 H   -1.03663778   -0.11062612   -0.29289756
 H   +6.00777693   +0.23464980   +4.07746881
22
 * E =  +9.695 kcal/mol ; (15) 357_168_067_133
 C   +0.00000000   +0.00000000   +0.00000000
 O   +0.00000000   +0.00000000   +1.40867861
 C   +1.13698549   +0.00000000   +2.11781745
 C   +2.43318892   -0.07008974   +1.34019955
 C   +3.65097374   +0.21401055   +2.16843232
 C   +4.08883500   -0.56734598   +3.13070653
 C   +3.63403549   -1.83948034   +3.71764108
 C   +4.75079805   -2.85663104   +3.88183637
 O   +1.07278577   +0.01068452   +3.30981740
 H   +5.54124875   -2.46528414   +4.51763719
 H   +0.37909629   +0.93861068   -0.39831865
 H   +5.19340215   -3.11220463   +2.92213810
 H   +4.37574132   -3.76986582   +4.33615296
 H   +2.83212319   -2.25027968   +3.09813893
 H   +3.17432374   -1.62335784   +4.68223007
 H   +5.24965738   -0.04614945   +3.76270568
 H   +4.17749910   +1.13571306   +1.95857040
 H   +2.48291350   -1.07548524   +0.91462702
 H   +2.39181755   +0.60728215   +0.49117150
 H   +0.57335377   -0.82980808   -0.40636461
 H   -1.03653241   -0.11175863   -0.29300072
 H   +5.95977840   +0.30858600   +4.12655544
