22
 * E =  +0.000 kcal/mol ; (1) 182_189_167_270
 C   +0.00000000   +0.00000000   +0.00000000
 C   +0.00000000   +0.00000000   +1.49913639
 O   +1.24071199   +0.00000000   +1.97850849
 O   -0.97333499   -0.01590754   +2.20114990
 C   +1.34605029   -0.03359193   +3.39145764
 H   +2.40604892   -0.02822809   +3.60908035
 H   +0.86146239   +0.83426267   +3.82733795
 H   +0.87931637   -0.93134482   +3.78438274
 C   -1.35392306   +0.22079037   -0.57940069
 C   -1.58585769   +0.51718555   -1.86452047
 C   -0.53515473   +0.84857008   -2.87807299
 C   -0.25964108   +2.34478034   -2.92592024
 H   +0.40340958   -0.96853970   -0.30950389
 H   -2.18284681   +0.08029471   +0.09861851
 H   -2.61170537   +0.69570997   -2.15970650
 H   +0.38534917   +0.31029620   -2.65804218
 H   -0.85912476   +0.50788802   -3.85951467
 H   +0.48278880   +2.58225579   -3.68441928
 H   -1.16525586   +2.90090004   -3.15819446
 H   +0.10770525   +2.70510320   -1.96719987
 H   +0.72747096   +0.73583250   -0.33824645
 H   -1.86647939   -1.38263030   -2.56429637
22
 * E =  +0.060 kcal/mol ; (2) 181_184_176_165
 C   +0.00000000   +0.00000000   +0.00000000
 C   +0.00000000   +0.00000000   +1.49863667
 O   +1.24082299   +0.00000000   +1.97800254
 O   -0.97317539   -0.00674912   +2.20100675
 C   +1.34603993   -0.01602851   +3.39119014
 H   +2.40606908   -0.01611791   +3.60880455
 H   +0.86840572   +0.86118718   +3.81598305
 H   +0.87232382   -0.90492466   +3.79566090
 C   -1.36527696   +0.08998081   -0.58513532
 C   -1.60026554   +0.19168163   -1.89887054
 C   -0.54439601   +0.37634787   -2.94529269
 C   -1.03565265   +0.09218660   -4.35048757
 H   +0.50743593   -0.91379102   -0.32074876
 H   -2.18794119   +0.02620995   +0.11134710
 H   -2.62803324   +0.29071515   -2.22456401
 H   -0.18366806   +1.40692625   -2.89212251
 H   +0.31602459   -0.25304481   -2.71802748
 H   -0.25236855   +0.26416070   -5.08405665
 H   -1.36574600   -0.94003087   -4.44427980
 H   -1.87690467   +0.73373104   -4.60577512
 H   +0.64639250   +0.81246949   -0.33361728
 H   -1.84315088   -1.82756776   -2.28382726
22
 * E =  +0.463 kcal/mol ; (3) 182_067_115_281
 C   +0.00000000   +0.00000000   +0.00000000
 C   +0.00000000   +0.00000000   +1.50199336
 O   +1.23677234   +0.00000000   +1.99161153
 O   -0.98021165   -0.01293610   +2.19493552
 C   +1.33109718   -0.03899303   +3.40515306
 H   +2.38924083   -0.03706066   +3.63164018
 H   +0.84497717   +0.82838910   +3.84033984
 H   +0.85863905   -0.93718973   +3.79011218
 C   +0.54943491   -1.28347152   -0.53132701
 C   -0.14569449   -2.18442251   -1.24052801
 C   -1.62208238   -2.14811223   -1.49647099
 C   -2.41118822   -2.64122143   -0.29188035
 H   +0.61824736   +0.83316248   -0.33550274
 H   +1.59494680   -1.46802586   -0.32916056
 H   +0.36431320   -3.10315446   -1.49988278
 H   -1.94006245   -1.13920412   -1.75271034
 H   -1.84662382   -2.76401216   -2.36456181
 H   -3.47730065   -2.65856070   -0.50684745
 H   -2.10963035   -3.64870290   -0.01291517
 H   -2.24840895   -1.99575856   +0.56864855
 H   -1.02081186   +0.16973636   -0.32075806
 H   +0.33958331   -1.62907787   -3.12873686
22
 * E =  +0.474 kcal/mol ; (4) 181_064_117_280
 C   +0.00000000   +0.00000000   +0.00000000
 C   +0.00000000   +0.00000000   +1.50199522
 O   +1.23690625   +0.00000000   +1.99163439
 O   -0.98002194   -0.00797648   +2.19504684
 C   +1.33120143   -0.03077981   +3.40534116
 H   +2.38936700   -0.03196702   +3.63175795
 H   +0.84887480   +0.84131540   +3.83533617
 H   +0.85495246   -0.92456436   +3.79582163
 C   +0.61314141   -1.25054662   -0.53887531
 C   -0.02381387   -2.16190022   -1.28821953
 C   -1.49168506   -2.17921685   -1.59066986
 C   -2.29541116   -2.74952993   -0.43075242
 H   +0.57637841   +0.86483912   -0.33156412
 H   +1.65864324   -1.39844728   -0.30861266
 H   +0.53002766   -3.05412773   -1.55031625
 H   -1.84587863   -1.17661355   -1.82252098
 H   -1.66193492   -2.77302977   -2.48609171
 H   -3.35254507   -2.80504560   -0.68059549
 H   -1.95822022   -3.75233227   -0.17698801
 H   -2.18857888   -2.12948751   +0.45678401
 H   -1.02747656   +0.12326316   -0.32030758
 H   +0.49711395   -1.54327398   -3.14645599
22
 * E =  +0.690 kcal/mol ; (5) 176_289_276_270
 C   +0.00000000   +0.00000000   +0.00000000
 C   +0.00000000   +0.00000000   +1.50297612
 O   +1.23522524   +0.00000000   +1.99415049
 O   -0.98303836   +0.02656832   +2.19198191
 C   +1.32686582   +0.07858978   +3.40617207
 H   +2.38453459   +0.07254853   +3.63488529
 H   +0.86343872   +0.99306080   +3.76266845
 H   +0.83103672   -0.77077956   +3.86537536
 C   +0.45181641   +1.33149567   -0.51815543
 C   -0.35260839   +2.39438646   -0.66733826
 C   -1.84266270   +2.38236508   -0.52087199
 C   -2.52780054   +2.09282674   -1.84880250
 H   -1.00917690   -0.23536714   -0.32084173
 H   +1.50918580   +1.44476423   -0.70660845
 H   +0.08191047   +3.29052592   -1.09226105
 H   -2.14320190   +1.65151323   +0.22659110
 H   -2.17044318   +3.35051839   -0.14771689
 H   -3.60959784   +2.12374332   -1.74284700
 H   -2.24433097   +2.82209692   -2.60495829
 H   -2.25295265   +1.10890274   -2.22336948
 H   +0.67025684   -0.78101693   -0.34939139
 H   -0.01852663   +3.27854962   +1.12221607
22
 * E =  +0.692 kcal/mol ; (6) 180_310_247_273
 C   +0.00000000   +0.00000000   +0.00000000
 C   +0.00000000   +0.00000000   +1.50363787
 O   +1.23498021   +0.00000000   +1.99722405
 O   -0.98241284   -0.01584632   +2.19219633
 C   +1.32420564   +0.00136892   +3.41156984
 H   +2.38158588   +0.01074514   +3.64152295
 H   +0.83625960   +0.88111713   +3.81878426
 H   +0.85112860   -0.88545392   +3.82143260
 C   +0.88310144   +1.05233064   -0.58109934
 C   +0.46713039   +2.11879747   -1.28082228
 C   -0.92782661   +2.37513032   -1.76205917
 C   -1.17703898   +1.73602509   -3.12030732
 H   -1.03077589   +0.09358080   -0.31977646
 H   +1.93692270   +0.95226128   -0.36494552
 H   +1.23421037   +2.76201331   -1.69334913
 H   -1.65577119   +2.01012611   -1.04104214
 H   -1.08523691   +3.44947173   -1.83166057
 H   -2.17578003   +1.96769201   -3.48308409
 H   -0.46174954   +2.09263784   -3.85852937
 H   -1.07909720   +0.65397454   -3.06482412
 H   +0.35657886   -0.98339996   -0.31237204
 H   +0.38557607   +3.48751770   +0.19012202
22
 * E =  +0.753 kcal/mol ; (7) 184_083_265_166
 C   +0.00000000   +0.00000000   +0.00000000
 C   +0.00000000   +0.00000000   +1.50340329
 O   +1.23948124   +0.00000000   +1.98738596
 O   -0.97800468   -0.03436673   +2.19804832
 C   +1.34046175   -0.09754430   +3.39758434
 H   +2.39924585   -0.08320813   +3.62064238
 H   +0.83743603   +0.73933564   +3.87158286
 H   +0.89045510   -1.02267120   +3.74343510
 C   +0.17189614   -1.40144837   -0.49730227
 C   +1.34634724   -1.95008424   -0.83788170
 C   +2.65514813   -1.22584972   -0.93620630
 C   +3.84354025   -2.16333693   -1.01614936
 H   +0.80188276   +0.64042237   -0.35615925
 H   -0.71647151   -2.01634872   -0.50953873
 H   +1.33015095   -2.96505346   -1.21632267
 H   +2.63342684   -0.59779881   -1.83018612
 H   +2.76704375   -0.55429321   -0.08766246
 H   +4.77373796   -1.60976982   -1.11319517
 H   +3.91082344   -2.78050339   -0.12278353
 H   +3.76168117   -2.82847022   -1.87387580
 H   -0.95311169   +0.40523554   -0.32410727
 H   +1.78272851   -2.82040095   +0.96113263
22
 * E =  +0.754 kcal/mol ; (8) 176_288_278_163
 C   +0.00000000   +0.00000000   +0.00000000
 C   +0.00000000   +0.00000000   +1.50306531
 O   +1.23541746   +0.00000000   +1.99324095
 O   -0.98246730   +0.03214547   +2.19317099
 C   +1.32850312   +0.09659461   +3.40403127
 H   +2.38635639   +0.09159307   +3.63190374
 H   +0.86714491   +1.01710956   +3.74768163
 H   +0.83141680   -0.74549562   +3.87509749
 C   +0.43482435   +1.34241546   -0.50350079
 C   -0.38476160   +2.39794462   -0.61229467
 C   -1.87135787   +2.36878044   -0.42279743
 C   -2.46852247   +3.74554587   -0.20913807
 H   -1.00725688   -0.24224704   -0.32258665
 H   +1.48758050   +1.47174047   -0.70557375
 H   +0.03157087   +3.31559812   -1.01013367
 H   -2.31751270   +1.92019942   -1.31410927
 H   -2.12726140   +1.71876697   +0.41131989
 H   -3.54950812   +3.69110243   -0.11212855
 H   -2.07303801   +4.20355694   +0.69473780
 H   -2.24182433   +4.40635356   -1.04402881
 H   +0.67940159   -0.77156063   -0.35200699
 H   +0.00420629   +3.18399614   +1.23852684
22
 * E =  +0.895 kcal/mol ; (9) 180_052_129_167
 C   +0.00000000   +0.00000000   +0.00000000
 C   +0.00000000   +0.00000000   +1.50175870
 O   +1.23504752   +0.00000000   +1.99672182
 O   -0.98180399   +0.01639469   +2.19156562
 C   +1.32251043   +0.01090069   +3.41106916
 H   +2.37955860   +0.00259021   +3.64261905
 H   +0.84980588   +0.90187828   +3.81216509
 H   +0.83262798   -0.86414632   +3.82615406
 C   +0.85393041   -1.07544573   -0.58162319
 C   +0.45909793   -1.95184942   -1.51561552
 C   -0.93450258   -2.12700713   -2.04268367
 C   -0.98390551   -2.96934214   -3.30194928
 H   +0.38175785   +0.97549979   -0.31284041
 H   +1.87768429   -1.10237549   -0.23767925
 H   +1.17439859   -2.70863805   -1.81411487
 H   -1.53961721   -2.60232672   -1.26817097
 H   -1.39181399   -1.15776056   -2.23261476
 H   -2.00630344   -3.10105456   -3.64595422
 H   -0.41534910   -2.50314051   -4.10378888
 H   -0.56246802   -3.95749690   -3.12721557
 H   -1.03289450   -0.07202552   -0.31798954
 H   +1.13234041   -0.95237208   -3.16143462
22
 * E =  +0.910 kcal/mol ; (10) 183_085_085_158
 C   +0.00000000   +0.00000000   +0.00000000
 C   +0.00000000   +0.00000000   +1.50185274
 O   +1.23443883   +0.00000000   +1.99699417
 O   -0.98379682   -0.03238093   +2.19020311
 C   +1.32181267   -0.06935804   +3.40962673
 H   +2.37870884   -0.06014435   +3.64182595
 H   +0.82316222   +0.78218559   +3.86158308
 H   +0.85821435   -0.98150287   +3.77211754
 C   +0.12090816   -1.40412376   -0.50793816
 C   -0.91117817   -2.24340501   -0.68446615
 C   -2.32650210   -2.00687266   -0.26349748
 C   -3.33352721   -2.83797088   -1.03367586
 H   +0.82979267   +0.60225523   -0.35734507
 H   +1.11494985   -1.74366043   -0.75909489
 H   -0.67777111   -3.24990926   -1.01093072
 H   -2.39829566   -2.24367569   +0.79955695
 H   -2.57354622   -0.94926131   -0.33561271
 H   -4.33840282   -2.68488392   -0.64897891
 H   -3.33271685   -2.57818072   -2.08988692
 H   -3.10685014   -3.89976879   -0.95443892
 H   -0.93339259   +0.45222678   -0.32125316
 H   -1.20657646   -1.86572297   -2.67033400
22
 * E =  +0.941 kcal/mol ; (11) 178_163_077_155
 C   +0.00000000   +0.00000000   +0.00000000
 C   +0.00000000   +0.00000000   +1.50460309
 O   +1.24388914   +0.00000000   +1.98001755
 O   -0.96935351   +0.02844620   +2.21047703
 C   +1.35340111   +0.05550109   +3.39164574
 H   +2.41395589   +0.04904114   +3.60687324
 H   +0.89158728   +0.96126312   +3.77210224
 H   +0.86625755   -0.80309402   +3.84281747
 C   -1.29953004   -0.39745790   -0.61106638
 C   -2.37768252   +0.39395329   -0.69689759
 C   -2.53516381   +1.73273095   -0.05337642
 C   -3.52434479   +2.63911180   -0.75939428
 H   +0.81318279   -0.63758671   -0.33526355
 H   -1.35292521   -1.38847731   -1.03747911
 H   -3.27579286   -0.03162183   -1.12791518
 H   -2.86543935   +1.55611444   +0.97127490
 H   -1.56751393   +2.22646033   +0.03309684
 H   -3.66275126   +3.56691019   -0.21013528
 H   -3.18695962   +2.88681375   -1.76324431
 H   -4.49732385   +2.15902953   -0.84772731
 H   +0.27539884   +1.01448544   -0.29702223
 H   -2.00697314   +1.08633841   -2.60280490
22
 * E =  +0.996 kcal/mol ; (12) 178_283_096_155
 C   +0.00000000   +0.00000000   +0.00000000
 C   +0.00000000   +0.00000000   +1.50270551
 O   +1.23929891   +0.00000000   +1.98990194
 O   -0.97768417   +0.01907101   +2.19840667
 C   +1.33273800   +0.04863276   +3.40291818
 H   +2.39056673   +0.03586068   +3.63120841
 H   +0.87082334   +0.95533416   +3.78090855
 H   +0.83597222   -0.80920334   +3.84508247
 C   +0.30538401   +1.36611252   -0.52762815
 C   +1.51597942   +1.80507385   -0.90494569
 C   +2.82055221   +1.09958283   -0.71666603
 C   +3.88393036   +1.50927360   -1.71690514
 H   -0.98640073   -0.31989070   -0.31920309
 H   -0.53827967   +2.03379189   -0.62814939
 H   +1.58583743   +2.83864217   -1.22275665
 H   +3.16862628   +1.32673451   +0.29269680
 H   +2.67905031   +0.02069278   -0.73741080
 H   +4.83512274   +1.03501469   -1.48915611
 H   +3.60064047   +1.23036722   -2.72905558
 H   +4.03917953   +2.58660473   -1.70307094
 H   +0.73638838   -0.72117312   -0.34503844
 H   +1.31701137   +1.40320423   -2.89197529
22
 * E =  +1.456 kcal/mol ; (13) 182_195_153_074
 C   +0.00000000   +0.00000000   +0.00000000
 C   +0.00000000   +0.00000000   +1.50018657
 O   +1.23964808   +0.00000000   +1.98173686
 O   -0.97513940   -0.02471063   +2.19929429
 C   +1.34189595   -0.04783963   +3.39471346
 H   +2.40124528   -0.03520906   +3.61508029
 H   +0.84796780   +0.81071938   +3.83833405
 H   +0.88235319   -0.95402826   +3.77665026
 C   -1.32633763   +0.34849778   -0.57370562
 C   -1.51530068   +0.92085785   -1.77280195
 C   -0.41950160   +1.44080463   -2.66122954
 C   +0.40382521   +0.37780832   -3.37141504
 H   +0.29689202   -1.00995031   -0.29978336
 H   -2.18142399   +0.07762657   +0.02811788
 H   -2.53006922   +1.18375494   -2.03662415
 H   -0.85309330   +2.10866240   -3.40212704
 H   +0.24776042   +2.05871673   -2.05689344
 H   +1.21846245   +0.83214734   -3.93121669
 H   +0.83568669   -0.32814556   -2.66561628
 H   -0.21010250   -0.19065221   -4.06485602
 H   +0.79621046   +0.65314291   -0.35140151
 H   -2.05373924   -0.70616061   -2.83279422
22
 * E =  +1.822 kcal/mol ; (14) 178_299_255_076
 C   +0.00000000   +0.00000000   +0.00000000
 C   +0.00000000   +0.00000000   +1.50354781
 O   +1.23638035   +0.00000000   +1.99234772
 O   -0.98061400   +0.00408548   +2.19582725
 C   +1.33129489   +0.03479839   +3.40603220
 H   +2.38960083   +0.03533449   +3.63173308
 H   +0.85693618   +0.93094748   +3.79313186
 H   +0.84791431   -0.83527969   +3.83896622
 C   +0.66974367   +1.21619267   -0.54926715
 C   +0.03179666   +2.26414658   -1.09722138
 C   -1.44192661   +2.32453276   -1.39053357
 C   -2.33531570   +2.54795667   -0.17927960
 H   -1.03227304   -0.07987618   -0.32126326
 H   +1.74302085   +1.26026897   -0.43344155
 H   +0.64976419   +3.04461175   -1.51958694
 H   -1.62056174   +3.11239135   -2.11893183
 H   -1.73445060   +1.39415820   -1.87973690
 H   -3.38394362   +2.50651039   -0.46613706
 H   -2.16456544   +1.79676503   +0.58835907
 H   -2.14516151   +3.52059132   +0.26731302
 H   +0.53561770   -0.89137476   -0.32692358
 H   +0.12002759   +3.53930204   +0.43469397
22
 * E =  +2.149 kcal/mol ; (15) 179_048_136_078
 C   +0.00000000   +0.00000000   +0.00000000
 C   +0.00000000   +0.00000000   +1.50150257
 O   +1.23306350   +0.00000000   +2.00029341
 O   -0.98412663   +0.02183281   +2.18798756
 C   +1.31617749   +0.01947018   +3.41498111
 H   +2.37250335   +0.01198077   +3.64974140
 H   +0.84255815   +0.91311466   +3.80893271
 H   +0.82442884   -0.85279199   +3.83362458
 C   +0.91482977   -1.01458980   -0.59648577
 C   +0.60439811   -1.81789733   -1.62740903
 C   -0.76147819   -1.94380504   -2.24380497
 C   -1.15083131   -0.81819815   -3.18960077
 H   +0.31650217   +1.00074743   -0.30876119
 H   +1.91262035   -1.05081867   -0.18416682
 H   +1.34404581   -2.55210974   -1.91522992
 H   -0.82057338   -2.89159483   -2.77420506
 H   -1.49829117   -2.00372674   -1.44190645
 H   -2.17933529   -0.93486259   -3.52408875
 H   -1.06125744   +0.15196925   -2.70544224
 H   -0.50742779   -0.80394070   -4.06529493
 H   -1.02828728   -0.12705432   -0.31926129
 H   +1.54887021   -0.83474232   -3.08378999
22
 * E =  +2.182 kcal/mol ; (16) 182_109_245_080
 C   +0.00000000   +0.00000000   +0.00000000
 C   +0.00000000   +0.00000000   +1.50319406
 O   +1.23074412   +0.00000000   +2.00542769
 O   -0.98872808   -0.02156101   +2.18364799
 C   +1.30689060   -0.05387455   +3.42042012
 H   +2.36201113   -0.04805359   +3.66032800
 H   +0.80919771   +0.80568931   +3.85790002
 H   +0.83501224   -0.95953399   +3.78772370
 C   -0.46635795   -1.32679508   -0.50336393
 C   +0.28154611   -2.20017853   -1.19850353
 C   +1.66172641   -1.92741382   -1.73061513
 C   +2.78245625   -2.03882251   -0.70768067
 H   +0.98871262   +0.24998082   -0.36827598
 H   -1.47269616   -1.60352858   -0.22264785
 H   -0.21691588   -3.08974533   -1.55842150
 H   +1.85907569   -2.60930208   -2.55491033
 H   +1.67448988   -0.92608958   -2.16252638
 H   +3.73292193   -1.74259453   -1.14669342
 H   +2.59154482   -1.40528778   +0.15561294
 H   +2.87902322   -3.05990632   -0.34784676
 H   -0.69982997   +0.77469963   -0.31079813
 H   +0.72177277   -3.48088871   +0.25347641
22
 * E =  +3.158 kcal/mol ; (17) 178_163_069_038
 C   +0.00000000   +0.00000000   +0.00000000
 C   +0.00000000   +0.00000000   +1.50340362
 O   +1.24379222   +0.00000000   +1.97900361
 O   -0.96940852   +0.02771339   +2.20981803
 C   +1.35384218   +0.05014729   +3.39081115
 H   +2.41454328   +0.04566321   +3.60533877
 H   +0.88992449   +0.95308399   +3.77535152
 H   +0.86930931   -0.81164860   +3.83866650
 C   -1.29800028   -0.40794540   -0.61268129
 C   -2.46213736   +0.25678571   -0.60676458
 C   -2.85226920   +1.52049011   +0.09785934
 C   -1.82188033   +2.63062278   +0.18257275
 H   +0.80628000   -0.64913265   -0.32977116
 H   -1.28414915   -1.35588130   -1.13175797
 H   -3.29361153   -0.26981011   -1.05819407
 H   -3.73684150   +1.90846597   -0.40456612
 H   -3.17028836   +1.24342487   +1.10425683
 H   -2.29636442   +3.54961150   +0.51802289
 H   -1.03128490   +2.40781754   +0.89251240
 H   -1.37498998   +2.82506347   -0.79097463
 H   +0.29048849   +1.00574537   -0.30451738
 H   -2.30495093   +1.17442392   -2.45261082
22
 * E =  +8.404 kcal/mol ; (18) 002_184_167_270
 C   +0.00000000   +0.00000000   +0.00000000
 C   +0.00000000   +0.00000000   +1.50705890
 O   +1.18910042   +0.00000000   +2.12083173
 O   -0.99355544   -0.01615093   +2.17102903
 C   +2.39618848   +0.03840345   +1.39556008
 H   +3.18432621   -0.04461789   +2.13331498
 H   +2.47594743   -0.79216201   +0.69830669
 H   +2.51092666   +0.97882959   +0.86106430
 C   -1.37388380   +0.10165381   -0.56793875
 C   -1.63606793   +0.37879462   -1.85136363
 C   -0.62574377   +0.80782301   -2.86952667
 C   -0.48229524   +2.32277279   -2.90726900
 H   +0.48124433   -0.92532904   -0.33201675
 H   -2.18067917   -0.11077043   +0.11682759
 H   -2.67530129   +0.46448885   -2.14098001
 H   +0.34001904   +0.34949430   -2.66148386
 H   -0.92608424   +0.44754689   -3.85136638
 H   +0.23292355   +2.63013897   -3.66679664
 H   -1.43418468   +2.79862618   -3.13191349
 H   -0.14535949   +2.70825783   -1.94700490
 H   +0.64199138   +0.80440305   -0.35872003
 H   -1.73401955   -1.53796880   -2.55555633
22
 * E =  +8.447 kcal/mol ; (19) 001_183_174_166
 C   +0.00000000   +0.00000000   +0.00000000
 C   +0.00000000   +0.00000000   +1.50654485
 O   +1.18906444   +0.00000000   +2.12051167
 O   -0.99368877   -0.01067392   +2.17043715
 C   +2.39615668   +0.03131598   +1.39496025
 H   +3.18446881   -0.03388136   +2.13429844
 H   +2.48023720   -0.81194275   +0.71356645
 H   +2.50638532   +0.96183586   +0.84257211
 C   -1.37198450   +0.07326998   -0.57421039
 C   -1.61149152   +0.20577135   -1.88423284
 C   -0.56406582   +0.44717288   -2.92810553
 C   -1.06115833   +0.21502713   -4.34072029
 H   +0.50584915   -0.90930072   -0.33933576
 H   -2.18729371   -0.03031629   +0.12502303
 H   -2.64235670   +0.28744172   -2.20467314
 H   -0.21547021   +1.47922354   -2.83470281
 H   +0.30519600   -0.18144550   -2.73338394
 H   -0.28454363   +0.42429665   -5.07161389
 H   -1.38151553   -0.81590468   -4.47383249
 H   -1.91029188   +0.85773398   -4.56447135
 H   +0.62267964   +0.82186143   -0.35732882
 H   -1.79458767   -1.80548652   -2.33076667
22
 * E =  +8.483 kcal/mol ; (20) 002_086_228_168
 C   +0.00000000   +0.00000000   +0.00000000
 C   +0.00000000   +0.00000000   +1.51172740
 O   +1.17240200   +0.00000000   +2.14923288
 O   -1.01271096   -0.03281708   +2.14765114
 C   +2.39161195   +0.03253687   +1.43990623
 H   +3.16625076   -0.12226919   +2.18058838
 H   +2.44343316   -0.76168065   +0.69905160
 H   +2.54443243   +1.00072106   +0.96696067
 C   +0.10383907   -1.39192152   -0.53587866
 C   +0.94056242   -1.79767449   -1.50211738
 C   +1.86983023   -0.92344857   -2.28978390
 C   +2.87441880   -1.71161137   -3.10644834
 H   +0.77749939   +0.63940726   -0.40748917
 H   -0.57223122   -2.11203148   -0.09590367
 H   +0.82749813   -2.81407629   -1.85850921
 H   +1.27469679   -0.29765564   -2.95780513
 H   +2.39448514   -0.23600848   -1.62541048
 H   +3.51605647   -1.05102413   -3.68317197
 H   +3.50691203   -2.32061451   -2.46413147
 H   +2.37111381   -2.37800509   -3.80396007
 H   -0.96289308   +0.42113140   -0.28159922
 H   +2.41000997   -2.69190046   -0.39195695
22
 * E =  +8.943 kcal/mol ; (21) 005_295_293_261
 C   +0.00000000   +0.00000000   +0.00000000
 C   +0.00000000   +0.00000000   +1.51533441
 O   +1.16771575   +0.00000000   +2.16034493
 O   -1.01370671   -0.02041668   +2.15195235
 C   +2.40072740   +0.09985326   +1.48623617
 H   +3.15621932   -0.17334518   +2.21272604
 H   +2.46142997   -0.58337200   +0.64206148
 H   +2.57327046   +1.11908667   +1.15154342
 C   +0.58022700   +1.23737749   -0.61679558
 C   +0.02045062   +2.45465891   -0.53832593
 C   -1.34040981   +2.75680713   +0.00294578
 C   -2.34735212   +2.92262565   -1.12684156
 H   -1.04252596   -0.12328890   -0.27742056
 H   +1.52945379   +1.14029188   -1.12391624
 H   +0.51051595   +3.26110546   -1.07018309
 H   -1.66623901   +1.97460894   +0.68380118
 H   -1.29919641   +3.67529177   +0.58558031
 H   -3.32832439   +3.17694895   -0.73344385
 H   -2.04645122   +3.71341105   -1.81122034
 H   -2.44337525   +2.00541216   -1.70360778
 H   +0.53406474   -0.87949605   -0.35490120
 H   +1.03835000   +3.08780971   +1.09169803
22
 * E =  +8.963 kcal/mol ; (22) 005_295_292_154
 C   +0.00000000   +0.00000000   +0.00000000
 C   +0.00000000   +0.00000000   +1.51542659
 O   +1.16773060   +0.00000000   +2.16036345
 O   -1.01349706   -0.01918238   +2.15284174
 C   +2.40025140   +0.10111927   +1.48549076
 H   +3.15746837   -0.15531930   +2.21623898
 H   +2.46715567   -0.59377867   +0.65132557
 H   +2.56405204   +1.11701962   +1.13651840
 C   +0.56870979   +1.24500181   -0.61161341
 C   -0.01120065   +2.45235974   -0.53795655
 C   -1.37457281   +2.73726528   +0.00739641
 C   -1.53364822   +4.15138969   +0.53189184
 H   -1.04124282   -0.13181042   -0.27856068
 H   +1.52187851   +1.16255790   -1.11352474
 H   +0.47455775   +3.27027746   -1.05682909
 H   -2.08541985   +2.58184804   -0.80872697
 H   -1.63610243   +2.01900024   +0.78054472
 H   -2.55891727   +4.33549936   +0.84107222
 H   -0.88840414   +4.32422273   +1.38988398
 H   -1.27815814   +4.88548388   -0.23039605
 H   +0.54321966   -0.87364130   -0.35535011
 H   +1.04237836   +3.07043520   +1.13071108
22
 * E =  +9.022 kcal/mol ; (23) 358_279_139_171
 C   +0.00000000   +0.00000000   +0.00000000
 C   +0.00000000   +0.00000000   +1.51035600
 O   +1.17557686   +0.00000000   +2.14561835
 O   -1.00907299   +0.02947071   +2.15158979
 C   +2.39354546   -0.03190594   +1.43564191
 H   +3.17038360   +0.09154162   +2.17996409
 H   +2.53398727   -0.98789242   +0.93524235
 H   +2.45365408   +0.77858427   +0.71410764
 C   +0.21992179   +1.37678635   -0.53978943
 C   +1.00090814   +1.67682131   -1.58774722
 C   +1.91429646   +0.72547407   -2.30384196
 C   +2.48485473   +1.30856132   -3.58107140
 H   -0.98891626   -0.35325551   -0.28605104
 H   -0.35914820   +2.16386377   -0.07681963
 H   +1.09633976   +2.72234646   -1.85358148
 H   +2.73559776   +0.45402030   -1.63502714
 H   +1.38838489   -0.20148678   -2.52677497
 H   +3.15287123   +0.60511238   -4.07043293
 H   +1.68958794   +1.55935797   -4.27958807
 H   +3.04825404   +2.21714886   -3.37820319
 H   +0.73595337   -0.69522238   -0.39514322
 H   -0.39966962   +1.66069228   -3.05267238
22
 * E =  +9.111 kcal/mol ; (24) 003_077_073_159
 C   +0.00000000   +0.00000000   +0.00000000
 C   +0.00000000   +0.00000000   +1.51286521
 O   +1.17408582   +0.00000000   +2.15167740
 O   -1.00895614   -0.02333132   +2.15557222
 C   +2.39405882   +0.06389359   +1.44985862
 H   +3.16937234   -0.03618131   +2.19927237
 H   +2.48763031   -0.74763967   +0.73361142
 H   +2.51266150   +1.02099942   +0.94666536
 C   +0.30211819   -1.35580345   -0.56557214
 C   -0.55473704   -2.38923965   -0.54973074
 C   -1.86525648   -2.43433421   +0.16743568
 C   -2.82055828   -3.47073879   -0.38963108
 H   +0.70663680   +0.73219461   -0.38187861
 H   +1.25133584   -1.48582285   -1.06511990
 H   -0.20518409   -3.32716674   -0.96464836
 H   -1.66309117   -2.65385883   +1.21771579
 H   -2.32659504   -1.44845591   +0.17372267
 H   -3.73327712   -3.51112069   +0.19861542
 H   -3.09206226   -3.24342096   -1.41819598
 H   -2.37375882   -4.46337809   -0.37666742
 H   -0.99827264   +0.31814168   -0.28853625
 H   -1.34626615   -2.07271539   -2.40564906
22
 * E =  +9.147 kcal/mol ; (25) 358_172_078_252
 C   +0.00000000   +0.00000000   +0.00000000
 C   +0.00000000   +0.00000000   +1.51213869
 O   +1.19210592   +0.00000000   +2.12237558
 O   -0.99015690   +0.02583753   +2.17959905
 C   +2.39819817   -0.04797351   +1.39572808
 H   +3.18712093   +0.06316515   +2.12908866
 H   +2.51999361   -1.00282468   +0.88907661
 H   +2.46948441   +0.76198453   +0.67394255
 C   -1.35113770   -0.18597602   -0.60248938
 C   -2.28583383   +0.77019430   -0.70587829
 C   -2.25654361   +2.11158466   -0.04769445
 C   -3.27847444   +2.18490762   +1.07748343
 H   +0.67939717   -0.77184968   -0.35547334
 H   -1.55986631   -1.15775939   -1.02510804
 H   -3.23558810   +0.48779794   -1.14320879
 H   -1.26458477   +2.32195385   +0.34793198
 H   -2.47208255   +2.88447869   -0.78446830
 H   -3.26987753   +3.16919050   +1.53981356
 H   -4.28345087   +2.00457460   +0.70024016
 H   -3.05879118   +1.44331362   +1.83925688
 H   +0.43715680   +0.94793121   -0.32172890
 H   -1.80207141   +1.39882169   -2.53899473
22
 * E =  +9.288 kcal/mol ; (26) 357_174_074_157
 C   +0.00000000   +0.00000000   +0.00000000
 C   +0.00000000   +0.00000000   +1.51247676
 O   +1.19372135   +0.00000000   +2.12138488
 O   -0.98903312   +0.02366410   +2.18133820
 C   +2.39810005   -0.05272994   +1.39270661
 H   +3.18923412   +0.04295806   +2.12589995
 H   +2.51025338   -1.00314064   +0.87557008
 H   +2.47692110   +0.76394946   +0.67920298
 C   -1.35791632   -0.13356283   -0.59910868
 C   -2.27520011   +0.84214694   -0.61803669
 C   -2.17305228   +2.14781739   +0.09959734
 C   -3.02550276   +3.24607566   -0.50442442
 H   +0.65422185   -0.79383707   -0.35437346
 H   -1.59281267   -1.07621274   -1.07033131
 H   -3.24107875   +0.61158651   -1.05038979
 H   -2.47889361   +1.96748983   +1.13135901
 H   -1.13250432   +2.46857736   +0.15480863
 H   -2.97148863   +4.15321899   +0.09186097
 H   -2.70392415   +3.48563594   -1.51553143
 H   -4.07020097   +2.94442719   -0.55281929
 H   +0.46766171   +0.93430800   -0.32166628
 H   -1.79081821   +1.58049604   -2.49438958
22
 * E =  +9.434 kcal/mol ; (27) 357_283_158_272
 C   +0.00000000   +0.00000000   +0.00000000
 C   +0.00000000   +0.00000000   +1.50842614
 O   +1.17591606   +0.00000000   +2.14434597
 O   -1.00794099   +0.02927622   +2.15141554
 C   +2.39328573   -0.06865930   +1.43606423
 H   +3.17249963   +0.04729785   +2.17910667
 H   +2.51168331   -1.03496784   +0.94938882
 H   +2.47402921   +0.72780341   +0.70084366
 C   +0.31195255   +1.35584442   -0.55661046
 C   +0.79698606   +1.58477645   -1.78558856
 C   +1.28046503   +0.53678199   -2.74054583
 C   +2.75254948   +0.21362167   -2.53163902
 H   -1.00738924   -0.29632745   -0.28734411
 H   +0.04023647   +2.20271340   +0.05883117
 H   +1.00490704   +2.61265283   -2.05355097
 H   +0.68495807   -0.36876662   -2.64056722
 H   +1.12782352   +0.88769822   -3.75881992
 H   +3.10180027   -0.50755753   -3.26662654
 H   +3.36713310   +1.10674803   -2.62061990
 H   +2.92435109   -0.20690399   -1.54274903
 H   +0.68988137   -0.74718354   -0.38822086
 H   -0.94408243   +1.86789600   -2.76831150
22
 * E =  +9.885 kcal/mol ; (28) 002_186_152_074
 C   +0.00000000   +0.00000000   +0.00000000
 C   +0.00000000   +0.00000000   +1.50812470
 O   +1.18851210   +0.00000000   +2.12288844
 O   -0.99489380   -0.02431469   +2.16956795
 C   +2.39561748   +0.04898646   +1.39810771
 H   +3.18382278   -0.04659307   +2.13429976
 H   +2.47497647   -0.77016645   +0.68740818
 H   +2.51087963   +0.99806247   +0.87923955
 C   -1.36967370   +0.14358550   -0.56085121
 C   -1.65144927   +0.69122786   -1.75300033
 C   -0.65784593   +1.38885039   -2.63998667
 C   +0.31801857   +0.47946312   -3.37000641
 H   +0.44694758   -0.94579177   -0.32363595
 H   -2.16716548   -0.25915827   +0.04484832
 H   -2.69644523   +0.79371033   -2.00949112
 H   -1.19696235   +1.98885932   -3.36940717
 H   -0.09343589   +2.09882424   -2.03152602
 H   +1.04817479   +1.06409119   -3.92549410
 H   +0.85849160   -0.16250324   -2.67759981
 H   -0.20300935   -0.16764617   -4.07037533
 H   +0.66757960   +0.77732701   -0.37077132
 H   -1.92715190   -0.99066642   -2.83048026
22
 * E = +10.319 kcal/mol ; (29) 002_188_280_173
 C   +0.00000000   +0.00000000   +0.00000000
 C   +0.00000000   +0.00000000   +1.51422998
 O   +1.19422408   +0.00000000   +2.12381928
 O   -0.98907133   -0.03063680   +2.18150065
 C   +2.39919142   +0.05062605   +1.39657020
 H   +3.18908674   -0.06420603   +2.12846435
 H   +2.46970874   -0.75612211   +0.67092007
 H   +2.52159163   +1.00759246   +0.89385990
 C   -1.35028901   +0.19420822   -0.59912141
 C   -2.25777483   -0.78338037   -0.72182260
 C   -2.01044256   -2.22000749   -0.36958866
 C   -3.26065410   -3.07250171   -0.44502345
 H   +0.42563765   -0.95607626   -0.31457408
 H   -1.60894858   +1.19504010   -0.91117415
 H   -3.17758936   -0.56011036   -1.24727371
 H   -1.25646328   -2.62382130   -1.05061383
 H   -1.58640526   -2.27570742   +0.63241737
 H   -3.04690778   -4.10801183   -0.19401356
 H   -4.01586297   -2.70796308   +0.24772689
 H   -3.68779429   -3.05346601   -1.44599484
 H   +0.68759489   +0.76387565   -0.35726033
 H   -3.41219227   -0.44299238   +0.88579016
22
 * E = +11.476 kcal/mol ; (30) 005_068_058_064
 C   +0.00000000   +0.00000000   +0.00000000
 C   +0.00000000   +0.00000000   +1.51212957
 O   +1.17605795   +0.00000000   +2.14661861
 O   -1.00555269   -0.00524985   +2.16135633
 C   +2.39541697   +0.10049587   +1.44650536
 H   +3.16999582   +0.06939542   +2.20268963
 H   +2.53081581   -0.73061345   +0.76034915
 H   +2.46732976   +1.04345470   +0.90872231
 C   +0.50945354   -1.27185529   -0.61287663
 C   +0.02707147   -2.51041434   -0.41492066
 C   -1.04049442   -2.93772263   +0.55307192
 C   -2.42763347   -2.36040564   +0.32252663
 H   +0.59927176   +0.83600877   -0.35432730
 H   +1.32274697   -1.16600355   -1.31715984
 H   +0.58013132   -3.30805259   -0.89321819
 H   -1.10238979   -4.02316630   +0.52236424
 H   -0.71897091   -2.68312639   +1.56416547
 H   -3.12840349   -2.79044069   +1.03380604
 H   -2.45006943   -1.28574232   +0.46879427
 H   -2.77960850   -2.58575000   -0.68139134
 H   -1.02645863   +0.19551304   -0.29612412
 H   -1.04627949   -2.75470839   -2.11672360
