22
 * E =  +0.000 kcal/mol ; (1) 182_191_158_211
 C   +0.00000000   +0.00000000   +0.00000000
 O   +0.00000000   +0.00000000   +1.41730055
 C   +1.20144919   +0.00000000   +1.98787038
 C   +1.09013827   -0.04585924   +3.48287473
 C   +2.38785562   +0.21851794   +4.16453885
 C   +2.52979503   +0.64297001   +5.42072870
 C   +1.45581645   +0.91389235   +6.38143028
 C   +1.73535311   +1.99245168   +7.39538164
 O   +2.22466876   +0.01233898   +1.36073154
 H   +1.79953150   +2.96809561   +6.91610813
 H   +0.50603254   +0.88262967   -0.37795035
 H   +2.67940321   +1.81172337   +7.90497023
 H   +0.95164372   +2.03822765   +8.14705205
 H   +1.29244592   -0.11151413   +7.04469821
 H   +0.47826407   +1.02112476   +5.91761222
 H   +3.53839237   +0.77743342   +5.79158292
 H   +3.26773692   +0.03962233   +3.56381663
 H   +0.30443729   +0.64212276   +3.78736957
 H   +0.71365273   -1.04194642   +3.72959014
 H   +0.50431298   -0.88361097   -0.37829733
 H   -1.04095503   +0.00096006   -0.29562262
 H   +1.08559432   -0.92553325   +7.69001049
22
 * E =  +0.397 kcal/mol ; (2) 184_078_271_212
 C   +0.00000000   +0.00000000   +0.00000000
 O   +0.00000000   +0.00000000   +1.41673290
 C   +1.19950359   +0.00000000   +1.99075998
 C   +1.08404383   -0.10172640   +3.48586488
 C   +0.80354176   -1.51810719   +3.88788750
 C   -0.40546194   -2.07098305   +4.00557632
 C   -1.69845309   -1.42965142   +3.75410976
 C   -2.84688665   -1.90990424   +4.60207028
 O   +2.22718878   +0.04674925   +1.37272722
 H   -2.71011707   -1.61967308   +5.64271925
 H   +0.48217814   +0.89593921   -0.37841084
 H   -2.92983036   -2.99428637   +4.56965506
 H   -3.78929111   -1.49119986   +4.25887311
 H   -2.00948679   -1.70887604   +2.59608778
 H   -1.63974293   -0.34692953   +3.68797129
 H   -0.44752944   -3.11567334   +4.28971356
 H   +1.67129033   -2.13593759   +4.06954261
 H   +2.02434646   +0.23544607   +3.90788360
 H   +0.28873037   +0.56135298   +3.81726362
 H   +0.52797483   -0.87072187   -0.37574317
 H   -1.04057492   -0.02971257   -0.29540063
 H   -2.38694544   -1.90860232   +1.63045128
22
 * E =  +0.580 kcal/mol ; (3) 180_054_121_211
 C   +0.00000000   +0.00000000   +0.00000000
 O   +0.00000000   +0.00000000   +1.41709100
 C   +1.20200975   +0.00000000   +1.98761625
 C   +1.10778476   +0.00055644   +3.48662635
 C   +0.25859210   -1.11146099   +4.00830612
 C   +0.64556082   -2.06947253   +4.85231521
 C   +1.96638305   -2.24477046   +5.46550028
 C   +2.37045507   -3.66917510   +5.74401662
 O   +2.22506383   +0.01107950   +1.36046188
 H   +2.52808852   -4.21542745   +4.81535805
 H   +0.49979327   +0.88620910   -0.37815978
 H   +1.60044610   -4.19027113   +6.30906802
 H   +3.29290210   -3.70946589   +6.31721378
 H   +1.92671144   -1.70382039   +6.57484988
 H   +2.75464826   -1.68032602   +4.97650530
 H   -0.10223698   -2.79562502   +5.14793835
 H   -0.76082394   -1.12033823   +3.64969856
 H   +2.11931665   -0.02539492   +3.87162969
 H   +0.66581859   +0.95567218   +3.77679471
 H   +0.51104982   -0.88003199   -0.37733547
 H   -1.04078275   -0.00666425   -0.29626611
 H   +1.99039338   -1.29625007   +7.54391793
22
 * E =  +0.666 kcal/mol ; (4) 183_079_086_210
 C   +0.00000000   +0.00000000   +0.00000000
 O   +0.00000000   +0.00000000   +1.41709699
 C   +1.20110348   +0.00000000   +1.98708989
 C   +1.10989085   -0.07580098   +3.48352196
 C   +0.84352625   -1.48954276   +3.91254931
 C   +1.78620123   -2.41055792   +4.11780234
 C   +3.23450064   -2.21854809   +3.97847884
 C   +4.01661350   -3.44234889   +3.57839772
 O   +2.22591039   +0.02421450   +1.36061448
 H   +3.77389461   -3.73797950   +2.55902261
 H   +0.50278340   +0.88446888   -0.37810749
 H   +3.79287356   -4.28293553   +4.23216242
 H   +5.08592453   -3.25468316   +3.62538467
 H   +3.66644566   -1.91354186   +5.09084920
 H   +3.49578766   -1.34930068   +3.38232824
 H   +1.46506685   -3.39449317   +4.43774897
 H   -0.19317133   -1.76665463   +4.03564897
 H   +2.04802601   +0.29121499   +3.88526133
 H   +0.30624843   +0.57146282   +3.82280273
 H   +0.50816407   -0.88196336   -0.37706822
 H   -1.04080459   -0.00321011   -0.29614417
 H   +4.14198595   -1.67691404   +6.00797083
22
 * E =  +0.799 kcal/mol ; (5) 177_275_098_210
 C   +0.00000000   +0.00000000   +0.00000000
 O   +0.00000000   +0.00000000   +1.41702699
 C   +1.20393428   +0.00000000   +1.98576134
 C   +1.10436956   +0.07672441   +3.48256399
 C   +0.97113957   +1.50587973   +3.91540474
 C   -0.17260940   +2.12434575   +4.21213389
 C   -1.51861013   +1.54150221   +4.18850676
 C   -2.63679978   +2.50244685   +3.87890259
 O   +2.22619915   -0.02707511   +1.35759928
 H   -2.56852752   +2.85556889   +2.85111698
 H   +0.50429879   +0.88428103   -0.37685438
 H   -2.59877157   +3.37180687   +4.53200405
 H   -3.60654576   +2.02876314   +4.00667442
 H   -1.75894821   +1.12970049   +5.32565494
 H   -1.58133550   +0.63248866   +3.59825582
 H   -0.11226981   +3.16025185   +4.52349272
 H   +1.89277288   +2.06808440   +3.96514131
 H   +0.25781600   -0.51544658   +3.81522061
 H   +2.01499783   -0.35220733   +3.88837390
 H   +0.50673065   -0.88206756   -0.37850170
 H   -1.04073042   -0.00133636   -0.29677630
 H   -2.07704098   +0.76875266   +6.26678057
22
 * E =  +0.836 kcal/mol ; (6) 181_311_240_214
 C   +0.00000000   +0.00000000   +0.00000000
 O   +0.00000000   +0.00000000   +1.41714872
 C   +1.20208442   +0.00000000   +1.98698433
 C   +1.11109395   -0.01431606   +3.48686112
 C   +0.16417085   +1.00497501   +4.02753606
 C   +0.46616007   +2.00351022   +4.85930769
 C   +1.78019700   +2.35441451   +5.40734065
 C   +1.77590799   +2.90946073   +6.80807470
 O   +2.22477482   -0.01150941   +1.35972885
 H   +1.48398442   +2.14615346   +7.52781320
 H   +0.51050441   +0.88047558   -0.37689848
 H   +1.07318102   +3.73516584   +6.89823295
 H   +2.76060648   +3.27509029   +7.08721397
 H   +2.22749952   +3.27103291   +4.70771670
 H   +2.53642756   +1.58828542   +5.26631458
 H   -0.34570281   +2.65700135   +5.15577909
 H   -0.85992689   +0.90271712   +3.69833705
 H   +0.76349633   -1.01200089   +3.76403820
 H   +2.11936118   +0.10068629   +3.86408162
 H   +0.50055157   -0.88578429   -0.37821404
 H   -1.04080990   +0.00618791   -0.29617172
 H   +2.68146976   +4.06888460   +4.20020335
22
 * E =  +0.919 kcal/mol ; (7) 177_281_282_213
 C   +0.00000000   +0.00000000   +0.00000000
 O   +0.00000000   +0.00000000   +1.41718990
 C   +1.20171955   +0.00000000   +1.98569268
 C   +1.11292821   +0.08138220   +3.48243860
 C   +0.83662106   +1.49147589   +3.91723561
 C   +1.74822718   +2.46487457   +3.96823690
 C   +3.15668864   +2.36413518   +3.57694702
 C   +4.12292739   +3.20698254   +4.36729885
 O   +2.22590753   -0.03206894   +1.35938972
 H   +4.20862118   +2.84529487   +5.39095147
 H   +0.51175827   +0.88008825   -0.37651745
 H   +3.79439148   +4.24352061   +4.40940622
 H   +5.11377364   +3.18697473   +3.92129146
 H   +3.22583376   +2.79341043   +2.42315280
 H   +3.49558809   +1.34243358   +3.43034382
 H   +1.41738940   +3.44261988   +4.29757050
 H   -0.18341812   +1.72155037   +4.18723169
 H   +0.32035350   -0.57625178   +3.82651300
 H   +2.05983527   -0.27460225   +3.87687026
 H   +0.49930136   -0.88640867   -0.37826817
 H   -1.04084047   +0.00725619   -0.29605207
 H   +3.39212139   +3.18046268   +1.45730724
22
 * E =  +0.993 kcal/mol ; (8) 177_153_074_223
 C   +0.00000000   +0.00000000   +0.00000000
 O   +0.00000000   +0.00000000   +1.41732441
 C   +1.20337448   +0.00000000   +1.98596239
 C   +1.09561245   +0.08293288   +3.48586549
 C   +2.24666846   -0.53658364   +4.20890743
 C   +3.46537430   -0.00726300   +4.30852771
 C   +3.90061130   +1.27772035   +3.75721593
 C   +5.25161177   +1.27558952   +3.09302050
 O   +2.22411373   -0.02104205   +1.35597263
 H   +5.20989507   +0.69664387   +2.17222573
 H   +0.50241933   +0.88480597   -0.37826060
 H   +6.00722347   +0.83217711   +3.73830557
 H   +5.56881039   +2.28555134   +2.84596861
 H   +4.01177217   +2.06594226   +4.71488064
 H   +3.14662323   +1.76058616   +3.14369376
 H   +4.21812348   -0.57033756   +4.84679551
 H   +2.06580308   -1.50372776   +4.65565865
 H   +1.01313636   +1.14658674   +3.71603792
 H   +0.15169389   -0.36183171   +3.78453286
 H   +0.50872071   -0.88119669   -0.37760058
 H   -1.04088647   -0.00339336   -0.29594067
 H   +4.16036122   +2.79097024   +5.44186246
22
 * E =  +1.796 kcal/mol ; (9) 182_193_149_061
 C   +0.00000000   +0.00000000   +0.00000000
 O   +0.00000000   +0.00000000   +1.41729986
 C   +1.20151485   +0.00000000   +1.98648507
 C   +1.09309780   -0.04412025   +3.48238465
 C   +2.38333678   +0.27508555   +4.15424414
 C   +2.51240160   +0.87480036   +5.33719238
 C   +1.41751772   +1.31473809   +6.22173748
 C   +0.46843255   +0.26942950   +6.75045187
 O   +2.22459708   +0.00620592   +1.35875398
 H   +0.99135632   -0.41761781   +7.41440474
 H   +0.51316759   +0.87866493   -0.37743418
 H   +0.02888362   -0.32163665   +5.95200527
 H   -0.34011478   +0.72979413   +7.31321192
 H   +0.69216289   +2.10490423   +5.55959377
 H   +1.77518743   +1.96745456   +7.01293828
 H   +3.51854192   +1.09128806   +5.67190134
 H   +3.27071705   +0.01101421   +3.59747389
 H   +0.28648636   +0.61663288   +3.79209470
 H   +0.76240965   -1.05726215   +3.72779324
 H   +0.49733642   -0.88754377   -0.37848187
 H   -1.04092470   +0.00940085   -0.29555973
 H   +0.04600002   +2.71373369   +5.07055583
22
 * E =  +2.005 kcal/mol ; (10) 178_295_249_064
 C   +0.00000000   +0.00000000   +0.00000000
 O   +0.00000000   +0.00000000   +1.41709807
 C   +1.20134726   +0.00000000   +1.98826454
 C   +1.10086596   +0.04004533   +3.48597126
 C   +0.48755726   +1.31964946   +3.96019917
 C   +1.12627615   +2.28726026   +4.61723119
 C   +2.55811727   +2.31481754   +4.97190398
 C   +3.56081612   +2.34922294   +3.84567117
 O   +2.22522999   -0.01879499   +1.36125668
 H   +3.49255159   +3.29639402   +3.31147256
 H   +0.51002643   +0.88066632   -0.37741720
 H   +3.39397991   +1.55782084   +3.12040063
 H   +4.57411990   +2.25610957   +4.22935991
 H   +2.81147372   +1.25436865   +5.61148687
 H   +2.77041964   +3.06794387   +5.72557050
 H   +0.53243553   +3.13046976   +4.94698274
 H   -0.56579063   +1.44060473   +3.75100185
 H   +0.47263297   -0.79406516   +3.79752026
 H   +2.09458982   -0.11062181   +3.89060423
 H   +0.50053079   -0.88572529   -0.37819409
 H   -1.04080656   +0.00552544   -0.29616220
 H   +3.07620530   +0.41664322   +6.10073889
22
 * E =  +2.378 kcal/mol ; (11) 181_119_241_065
 C   +0.00000000   +0.00000000   +0.00000000
 O   +0.00000000   +0.00000000   +1.41800067
 C   +1.20293796   +0.00000000   +1.98570649
 C   +1.12342259   -0.01846514   +3.48538066
 C   +1.78808496   -1.24260776   +4.02890935
 C   +1.19503279   -2.19791640   +4.74314611
 C   -0.23446282   -2.27338616   +5.10106739
 C   -1.22766687   -2.44439291   +3.97911104
 O   +2.22544354   +0.00385535   +1.35656429
 H   -1.10911002   -3.42453624   +3.51827314
 H   +0.50914733   +0.88117497   -0.37708222
 H   -1.09196526   -1.70121714   +3.19816215
 H   -2.24741838   -2.37141409   +4.35006354
 H   -0.55064959   -1.18072837   +5.66034282
 H   -0.41170193   -2.97876574   +5.90806233
 H   +1.82657019   -2.99373144   +5.11754708
 H   +2.84461711   -1.32635566   +3.81771430
 H   +1.66393171   +0.86204157   +3.83267819
 H   +0.09302202   +0.06946143   +3.80874902
 H   +0.50296670   -0.88499602   -0.37654375
 H   -1.04083412   +0.00391013   -0.29592627
 H   -0.86550277   -0.32780605   +6.07785786
22
 * E =  +2.827 kcal/mol ; (12) 178_040_137_063
 C   +0.00000000   +0.00000000   +0.00000000
 O   +0.00000000   +0.00000000   +1.41712212
 C   +1.20263459   +0.00000000   +1.98621641
 C   +1.12765337   +0.04238380   +3.48581332
 C   +0.04216090   -0.79777157   +4.07218801
 C   +0.16091516   -1.57634589   +5.14743310
 C   +1.36082180   -1.73903997   +5.98932706
 C   +1.86803032   -0.52887563   +6.73183319
 O   +2.22340881   +0.00589068   +1.35569080
 H   +1.15387986   -0.22584411   +7.49653898
 H   +0.49879000   +0.88692588   -0.37783366
 H   +2.01426162   +0.32068623   +6.07066284
 H   +2.81411022   -0.74328474   +7.22317479
 H   +2.31597901   -2.08685476   +5.23490439
 H   +1.28278096   -2.60515056   +6.64026637
 H   -0.70360586   -2.16660877   +5.42343144
 H   -0.90622437   -0.76557450   +3.55627614
 H   +2.11043395   -0.23109756   +3.85398444
 H   +0.96494953   +1.09304334   +3.74372203
 H   +0.51293566   -0.87900187   -0.37689863
 H   -1.04080636   -0.00843386   -0.29626065
 H   +3.12128076   -2.33414162   +4.68871020
22
 * E =  +3.512 kcal/mol ; (13) 176_284_087_028
 C   +0.00000000   +0.00000000   +0.00000000
 O   +0.00000000   +0.00000000   +1.41683743
 C   +1.20025974   +0.00000000   +1.99076346
 C   +1.08632899   +0.10520970   +3.48606424
 C   +0.74458827   +1.51454721   +3.86680429
 C   -0.45862210   +2.08696941   +3.95646216
 C   -1.81014538   +1.54506676   +3.74543760
 C   -2.12636106   +0.08774137   +3.96673968
 O   +2.22667994   -0.04963683   +1.37119864
 H   -1.78041330   -0.24380647   +4.94498258
 H   +0.52760564   +0.87112165   -0.37528812
 H   -1.68144536   -0.54492579   +3.20566652
 H   -3.20192837   -0.06357617   +3.92857791
 H   -2.08485252   +1.75453714   +2.56464217
 H   -2.54019300   +2.18274950   +4.23761781
 H   -0.44692195   +3.14490059   +4.18660539
 H   +1.60052356   +2.15261349   +4.03791215
 H   +0.33683251   -0.59857391   +3.83008790
 H   +2.04801450   -0.17484642   +3.90135077
 H   +0.48243841   -0.89565766   -0.37864193
 H   -1.04067079   +0.02996420   -0.29521126
 H   -2.40606799   +1.83087276   +1.55619360
22
 * E =  +3.535 kcal/mol ; (14) 182_067_094_009
 C   +0.00000000   +0.00000000   +0.00000000
 O   +0.00000000   +0.00000000   +1.41710437
 C   +1.20075931   +0.00000000   +1.98768552
 C   +1.10367249   -0.05838519   +3.48541382
 C   +0.55632321   -1.37966933   +3.93643372
 C   +1.21641279   -2.48186278   +4.29974700
 C   +2.65039888   -2.80425372   +4.33894258
 C   +3.71807184   -1.76842983   +4.11520662
 O   +2.22510682   +0.02697626   +1.36102474
 H   +3.71025407   -1.01575149   +4.90280842
 H   +0.49732565   +0.88744592   -0.37846868
 H   +3.60997034   -1.26778078   +3.15694092
 H   +4.69554563   -2.24394364   +4.13272880
 H   +2.81128997   -3.62922889   +3.43455044
 H   +2.86983219   -3.43212454   +5.20052932
 H   +0.58846502   -3.31697576   +4.58594740
 H   -0.52307940   -1.43675292   +3.94631569
 H   +2.08695549   +0.14706746   +3.88356105
 H   +0.42900905   +0.73192876   +3.80830584
 H   +0.51315837   -0.87908922   -0.37683763
 H   -1.04080977   -0.00938293   -0.29604723
 H   +3.05676410   -4.30786070   +2.66411458
22
 * E =  +3.554 kcal/mol ; (15) 175_281_089_025
 C   +0.00000000   +0.00000000   +0.00000000
 O   +0.00000000   +0.00000000   +1.41680193
 C   +1.19993155   +0.00000000   +1.99143497
 C   +1.08670013   +0.11412640   +3.48604106
 C   +0.82484236   +1.54323900   +3.85691306
 C   -0.34406229   +2.17746682   +3.97841021
 C   -1.72916190   +1.70912162   +3.81579222
 C   -2.11044495   +0.26373613   +4.00731085
 O   +2.22650299   -0.05272118   +1.37230614
 H   -1.75849230   -0.11039222   +4.96793484
 H   +0.53013291   +0.86956284   -0.37531602
 H   -1.71410846   -0.36832503   +3.21921296
 H   -3.19276530   +0.16560708   +3.99231806
 H   -2.04356106   +1.97037801   +2.65541763
 H   -2.40369390   +2.36801466   +4.35718729
 H   -0.26982028   +3.23506622   +4.19847642
 H   +1.71669970   +2.13921187   +3.99307552
 H   +0.29907102   -0.54507015   +3.83176353
 H   +2.03149552   -0.21420444   +3.90535275
 H   +0.47980398   -0.89703539   -0.37869504
 H   -1.04051142   +0.03257005   -0.29546824
 H   -2.39607942   +2.09069858   +1.66063858
22
 * E =  +3.684 kcal/mol ; (16) 177_290_260_010
 C   +0.00000000   +0.00000000   +0.00000000
 O   +0.00000000   +0.00000000   +1.41694918
 C   +1.20075193   +0.00000000   +1.98868330
 C   +1.10214880   +0.06153084   +3.48610788
 C   +0.61356048   +1.41027786   +3.91916150
 C   +1.31018941   +2.44986416   +4.38386706
 C   +2.74339968   +2.63444903   +4.65750276
 C   +3.78202348   +1.63334347   +4.22467315
 O   +2.22554565   -0.02330011   +1.36284954
 H   +3.68442320   +1.38086074   +3.17013421
 H   +0.50601726   +0.88314691   -0.37718114
 H   +3.72196545   +0.71247128   +4.79898964
 H   +4.77563267   +2.04369133   +4.38341382
 H   +2.84398440   +2.69845860   +5.88828379
 H   +3.03219610   +3.65089868   +4.39795226
 H   +0.71962551   +3.32769494   +4.61639600
 H   -0.45050950   +1.55608480   +3.79362067
 H   +0.38853817   -0.69384386   +3.80999833
 H   +2.07342348   -0.18612410   +3.88696638
 H   +0.50480513   -0.88328424   -0.37821296
 H   -1.04077104   +0.00087727   -0.29631394
 H   +3.03058468   +2.70415786   +6.92333422
22
 * E =  +8.239 kcal/mol ; (17) 001_083_229_214
 C   +0.00000000   +0.00000000   +0.00000000
 O   +0.00000000   +0.00000000   +1.41156154
 C   +1.13847073   +0.00000000   +2.10735433
 C   +2.44779798   +0.01612151   +1.35122322
 C   +2.81747003   +1.41321816   +0.96315020
 C   +3.19052581   +1.83557353   -0.24695390
 C   +3.29750049   +1.04333158   -1.47697791
 C   +4.39522549   +1.45520899   -2.42386414
 O   +1.09438136   +0.01507872   +3.30284177
 H   +5.37403911   +1.25614293   -1.99077768
 H   +0.57999352   +0.82680531   -0.39861435
 H   +4.34040105   +2.51887485   -2.64461175
 H   +4.32641118   +0.91280500   -3.36291619
 H   +2.25594174   +1.21427386   -2.11654185
 H   +3.27790460   -0.03011822   -1.31021079
 H   +3.43359346   +2.88622082   -0.34873456
 H   +2.79309662   +2.13121424   +1.77173337
 H   +3.18255624   -0.37216111   +2.05229307
 H   +2.41494003   -0.64427853   +0.49045035
 H   +0.37327997   -0.94237730   -0.39544164
 H   -1.03576032   +0.11662208   -0.29312359
 H   +1.41584043   +1.31360710   -2.75326625
22
 * E =  +8.420 kcal/mol ; (18) 002_185_161_209
 C   +0.00000000   +0.00000000   +0.00000000
 O   +0.00000000   +0.00000000   +1.40880793
 C   +1.13894407   +0.00000000   +2.11141681
 C   +2.42984897   +0.05722605   +1.33478023
 C   +3.62617628   -0.06468051   +2.21552410
 C   +4.84774917   -0.40683659   +1.80499801
 C   +5.25737076   -0.71292591   +0.43053816
 C   +6.40883878   -1.67312497   +0.28412497
 O   +1.08254469   -0.02421347   +3.30490146
 H   +6.12738514   -2.67017672   +0.61921397
 H   +0.54569376   +0.84854348   -0.40551135
 H   +7.26019007   -1.35216899   +0.88035980
 H   +6.73219210   -1.74514666   -0.75097607
 H   +5.64959444   +0.33772862   -0.07722023
 H   +4.42414472   -0.96066202   -0.22339810
 H   +5.63369302   -0.43733412   +2.54926707
 H   +3.45402147   +0.15001923   +3.25934178
 H   +2.41983339   -0.71192495   +0.56323463
 H   +2.44515072   +1.00785737   +0.79452316
 H   +0.41023577   -0.92521490   -0.39872477
 H   -1.03941621   +0.07780478   -0.29313557
 H   +6.02640983   +1.17712441   -0.60650705
22
 * E =  +8.653 kcal/mol ; (19) 357_276_130_212
 C   +0.00000000   +0.00000000   +0.00000000
 O   +0.00000000   +0.00000000   +1.41022194
 C   +1.14028255   +0.00000000   +2.10646511
 C   +2.44676484   -0.06046031   +1.34949476
 C   +2.79365010   -1.47839643   +1.02003577
 C   +3.14116600   -1.96025541   -0.17521203
 C   +3.26781492   -1.22086840   -1.43520080
 C   +2.94553104   -1.99869534   -2.68478738
 O   +1.09426788   +0.01012946   +3.30154582
 H   +1.88613108   -2.24837187   -2.72743614
 H   +0.36636853   +0.94613850   -0.39355485
 H   +3.50483601   -2.93101454   -2.71780880
 H   +3.19142648   -1.42808408   -3.57630874
 H   +4.45683807   -0.90593263   -1.55467441
 H   +2.79191528   -0.24345141   -1.42031912
 H   +3.38820249   -3.01355251   -0.22818303
 H   +2.76700173   -2.15895612   +1.86018404
 H   +2.42902734   +0.56619530   +0.46334698
 H   +3.19142664   +0.34403383   +2.03052833
 H   +0.58681769   -0.82312372   -0.39870159
 H   -1.03536138   -0.12277680   -0.29290500
 H   +5.44198482   -0.61060256   -1.76838569
22
 * E =  +9.045 kcal/mol ; (20) 003_079_076_213
 C   +0.00000000   +0.00000000   +0.00000000
 O   +0.00000000   +0.00000000   +1.40890216
 C   +1.13838869   +0.00000000   +2.10734406
 C   +2.45114545   +0.08002402   +1.36046799
 C   +2.76234324   +1.48274597   +0.91678246
 C   +3.19798086   +2.45424453   +1.72103305
 C   +3.47275211   +2.33898622   +3.15683800
 C   +3.20173867   +3.57551280   +3.97375943
 O   +1.08423273   -0.04044039   +3.30266023
 H   +2.13268172   +3.77437848   +4.02463746
 H   +0.55505605   +0.84304822   -0.40151545
 H   +3.68520522   +4.44888896   +3.54053241
 H   +3.56681133   +3.45737100   +4.99031614
 H   +4.68424744   +2.14623479   +3.26281961
 H   +3.05189959   +1.44475451   +3.60548477
 H   +3.40116902   +3.41968619   +1.27332546
 H   +2.62819694   +1.70829079   -0.13156165
 H   +3.20333021   -0.28014759   +2.05487478
 H   +2.44672667   -0.58803129   +0.50315739
 H   +0.39778386   -0.93169232   -0.39614739
 H   -1.03842345   +0.09056920   -0.29347919
 H   +5.71609003   +2.01256877   +3.46533158
22
 * E =  +9.305 kcal/mol ; (21) 359_284_291_211
 C   +0.00000000   +0.00000000   +0.00000000
 O   +0.00000000   +0.00000000   +1.40880971
 C   +1.13894300   +0.00000000   +2.10660465
 C   +2.45118932   -0.02246436   +1.35363542
 C   +2.78105004   -1.37380377   +0.78561477
 C   +3.10270687   -2.44572827   +1.51369384
 C   +3.14903433   -2.52431950   +2.97574271
 C   +4.15473309   -3.48821120   +3.54856535
 O   +1.08694900   +0.00974607   +3.30208579
 H   +5.17222311   -3.14706384   +3.36321129
 H   +0.41888942   +0.92170883   -0.39814405
 H   +4.04992736   -4.47546615   +3.10297112
 H   +4.02739049   -3.58995566   +4.62287320
 H   +2.05080542   -2.95255755   +3.33624466
 H   +3.15412546   -1.55332066   +3.46277555
 H   +3.33009431   -3.36098311   +0.98031448
 H   +2.77362782   -1.46961996   -0.29072266
 H   +2.44177294   +0.72150191   +0.56104825
 H   +3.20029386   +0.28041543   +2.07971503
 H   +0.53580269   -0.85636942   -0.39944829
 H   -1.04044973   -0.06639602   -0.29293130
 H   +1.16403782   -3.35953334   +3.73524593
22
 * E =  +9.504 kcal/mol ; (22) 357_170_071_223
 C   +0.00000000   +0.00000000   +0.00000000
 O   +0.00000000   +0.00000000   +1.40879445
 C   +1.13769384   +0.00000000   +2.11654289
 C   +2.43323767   -0.06064012   +1.33415727
 C   +3.64900314   +0.18429166   +2.16570572
 C   +4.13654286   -0.66035772   +3.07263432
 C   +3.58881388   -1.97517168   +3.41162007
 C   +3.53524918   -2.29630046   +4.88141085
 O   +1.07477610   +0.01098689   +3.30881360
 H   +2.79816089   -1.66256434   +5.37100592
 H   +0.37955324   +0.93854732   -0.39802285
 H   +4.49891106   -2.12510292   +5.35662971
 H   +3.25606853   -3.33371156   +5.04648696
 H   +4.35158909   -2.82651628   +2.91875287
 H   +2.64910565   -2.19331431   +2.91323515
 H   +5.01794147   -0.35726674   +3.62410708
 H   +4.14022821   +1.13628672   +2.02756994
 H   +2.47099401   -1.04633827   +0.86490825
 H   +2.39068145   +0.65110141   +0.51335070
 H   +0.57347188   -0.82967424   -0.40611063
 H   -1.03648303   -0.11146348   -0.29312397
 H   +4.93305736   -3.61188475   +2.56844771
22
 * E =  +9.965 kcal/mol ; (23) 004_190_148_063
 C   +0.00000000   +0.00000000   +0.00000000
 O   +0.00000000   +0.00000000   +1.40951613
 C   +1.13957062   +0.00000000   +2.10936689
 C   +2.42986989   +0.08620366   +1.33237775
 C   +3.61660452   -0.16157887   +2.19826480
 C   +4.75014840   -0.73652850   +1.79851838
 C   +5.06372063   -1.20293217   +0.43492028
 C   +5.10937025   -0.17823398   -0.66984145
 O   +1.08799273   -0.03365375   +3.30303158
 H   +5.93356570   +0.51563183   -0.51058428
 H   +0.55761047   +0.84140326   -0.40463970
 H   +4.19653894   +0.40962407   -0.71579098
 H   +5.25422544   -0.65503558   -1.63632135
 H   +4.15385986   -2.00786160   +0.08849129
 H   +5.93589534   -1.85006553   +0.41819020
 H   +5.50742893   -0.90814183   +2.55230917
 H   +3.50308901   +0.12784993   +3.23211131
 H   +2.40659513   -0.60223099   +0.49010139
 H   +2.46773324   +1.09068505   +0.89888754
 H   +0.39814974   -0.93082115   -0.39730320
 H   -1.03835417   +0.09286949   -0.29264339
 H   +3.43320265   -2.61916531   -0.27110268
22
 * E = +10.143 kcal/mol ; (24) 356_279_145_061
 C   +0.00000000   +0.00000000   +0.00000000
 O   +0.00000000   +0.00000000   +1.41205376
 C   +1.14053540   +0.00000000   +2.10408162
 C   +2.44404358   -0.09967836   +1.34702940
 C   +2.73338354   -1.52498916   +0.98559198
 C   +3.33102799   -1.94591089   -0.12972924
 C   +3.87382414   -1.10376527   -1.21162789
 C   +4.98200346   -0.14314371   -0.86039308
 O   +1.09993742   +0.03602281   +3.29947936
 H   +5.88038270   -0.68997629   -0.57821066
 H   +0.35578295   +0.94990351   -0.39199949
 H   +4.71570454   +0.49650922   -0.02385347
 H   +5.22776102   +0.49088859   -1.70869191
 H   +2.94515117   -0.37280158   -1.65195987
 H   +4.11370545   -1.68796464   -2.09526768
 H   +3.42863478   -3.01617692   -0.25898859
 H   +2.42368724   -2.26405594   +1.71214886
 H   +2.44473153   +0.53352716   +0.46240453
 H   +3.20053768   +0.27339792   +2.03426896
 H   +0.60187828   -0.81108609   -0.40119045
 H   -1.03314231   -0.13898210   -0.29327729
 H   +2.28944985   +0.28488541   -2.05783998
22
 * E = +10.469 kcal/mol ; (25) 357_176_229_069
 C   +0.00000000   +0.00000000   +0.00000000
 O   +0.00000000   +0.00000000   +1.40937318
 C   +1.14137434   +0.00000000   +2.10824959
 C   +2.43118598   -0.05939768   +1.32867372
 C   +3.62289847   +0.04878256   +2.21420024
 C   +4.65296311   +0.87164711   +2.03213068
 C   +4.79172109   +1.89209704   +0.97422037
 C   +3.87706468   +3.08836362   +1.04271789
 O   +1.09239773   +0.02182402   +3.30223644
 H   +4.12133504   +3.70098127   +1.90941824
 H   +0.41342915   +0.92351195   -0.39904505
 H   +2.83535684   +2.79616901   +1.14579820
 H   +3.97628742   +3.70848513   +0.15486355
 H   +4.53288596   +1.33974089   -0.14494923
 H   +5.82723483   +2.18400380   +0.82299676
 H   +5.48076810   +0.78584441   +2.72465664
 H   +3.63513140   -0.62462206   +3.05824647
 H   +2.44944486   -1.02018537   +0.80660755
 H   +2.43385215   +0.69483679   +0.54615597
 H   +0.54513809   -0.84922501   -0.40475529
 H   -1.03947369   -0.07597025   -0.29344571
 H   +4.30190039   +0.97376559   -1.03746881
22
 * E = +11.199 kcal/mol ; (26) 352_276_249_066
 C   +0.00000000   +0.00000000   +0.00000000
 O   +0.00000000   +0.00000000   +1.40940210
 C   +1.13610110   +0.00000000   +2.11479680
 C   +2.44536595   -0.18768343   +1.38246883
 C   +2.73702519   -1.63830492   +1.15026837
 C   +3.71094956   -2.33619783   +1.73330180
 C   +4.66836269   -1.84717789   +2.74322370
 C   +4.12361558   -1.44955862   +4.09196250
 O   +1.07824186   +0.11570394   +3.30380546
 H   +3.76766139   -2.33056013   +4.62512187
 H   +0.40133860   +0.93090060   -0.39408288
 H   +3.28328700   -0.76613744   +4.01063706
 H   +4.89863759   -0.98541199   +4.69744991
 H   +5.20862863   -0.80308290   +2.27515660
 H   +5.52941216   -2.50419374   +2.82866917
 H   +3.83026125   -3.36457276   +1.41597384
 H   +2.11142313   -2.15029548   +0.43161572
 H   +2.43543836   +0.34052165   +0.43058586
 H   +3.21083483   +0.26467574   +2.00177239
 H   +0.55182232   -0.84157030   -0.40960788
 H   -1.03910361   -0.08615989   -0.29249300
 H   +5.65084016   +0.04065247   +1.95962952
22
 * E = +11.745 kcal/mol ; (27) 003_080_209_072
 C   +0.00000000   +0.00000000   +0.00000000
 O   +0.00000000   +0.00000000   +1.40962668
 C   +1.14235571   +0.00000000   +2.10298388
 C   +2.44829340   +0.07751863   +1.34887937
 C   +2.75268992   +1.48621044   +0.93429887
 C   +3.45221241   +1.86154195   -0.13569637
 C   +4.04485966   +0.98936475   -1.16893446
 C   +3.12652442   +0.30741516   -2.14971922
 O   +1.09595246   -0.02280208   +3.29801339
 H   +2.60120466   +1.04294704   -2.75799743
 H   +0.60143118   +0.81202350   -0.40057181
 H   +2.37591962   -0.29992150   -1.65188602
 H   +3.68920762   -0.33885833   -2.81861452
 H   +4.64332699   +0.03176980   -0.56453856
 H   +4.87594307   +1.47586278   -1.67162254
 H   +3.65482444   +2.92078843   -0.23547908
 H   +2.42105139   +2.25439700   +1.62012781
 H   +3.20295840   -0.25927295   +2.05578801
 H   +2.46794972   -0.60184291   +0.50091091
 H   +0.35318092   -0.95228906   -0.39129473
 H   -1.03293352   +0.13817570   -0.29462457
 H   +5.07865824   -0.74750460   -0.15016072
22
 * E = +12.398 kcal/mol ; (28) 356_065_073_030
 C   +0.00000000   +0.00000000   +0.00000000
 O   +0.00000000   +0.00000000   +1.40844499
 C   +1.12502967   +0.00000000   +2.12673541
 C   +2.45393226   -0.10209502   +1.40846392
 C   +2.78072459   +1.07021190   +0.52944371
 C   +3.15544868   +2.29897424   +0.89778598
 C   +3.34736546   +2.88862887   +2.23206705
 C   +3.77234736   +2.04409073   +3.40635113
 O   +1.04506228   +0.05349258   +3.32024024
 H   +4.69011911   +1.50223349   +3.17932784
 H   +0.24763874   +0.98456485   -0.38573704
 H   +3.01040843   +1.33085245   +3.70428090
 H   +3.97210908   +2.68389747   +4.26177010
 H   +2.26013993   +3.37338783   +2.55222014
 H   +3.95207421   +3.78824892   +2.15191913
 H   +3.31144661   +2.99447022   +0.08272627
 H   +2.69696910   +0.89407481   -0.53393236
 H   +3.19228093   -0.23594766   +2.18966731
 H   +2.45542613   -1.01244030   +0.81094927
 H   +0.68488620   -0.73892124   -0.40968728
 H   -1.00995030   -0.25864616   -0.29397153
 H   +1.35406740   +3.76782345   +2.92986416
22
 * E = +12.498 kcal/mol ; (29) 013_076_146_060
 C   +0.00000000   +0.00000000   +0.00000000
 O   +0.00000000   +0.00000000   +1.41027209
 C   +1.14188112   +0.00000000   +2.11317136
 C   +2.41950210   +0.31067994   +1.37684887
 C   +2.52305145   +1.77987967   +1.09042265
 C   +3.65417415   +2.48488949   +1.07339699
 C   +5.01726823   +1.96727927   +1.28465139
 C   +5.52868723   +0.90564948   +0.34395613
 O   +1.09868876   -0.19703325   +3.29034928
 H   +5.62309234   +1.30357714   -0.66544423
 H   +0.54443280   +0.84479426   -0.41351543
 H   +4.86375916   +0.04809568   +0.29634174
 H   +6.50794828   +0.55312138   +0.65814232
 H   +5.04536940   +1.43039748   +2.42480327
 H   +5.73665970   +2.77101629   +1.40990024
 H   +3.56197555   +3.55232390   +0.92062410
 H   +1.59462473   +2.31117173   +0.92767940
 H   +3.23333050   -0.01273250   +2.01766525
 H   +2.47059078   -0.26813025   +0.45330413
 H   +0.41230918   -0.92787571   -0.39080561
 H   -1.04007013   +0.07199061   -0.29303090
 H   +5.13549408   +0.94536537   +3.30859432
