21
 * E =  +0.000 kcal/mol ; (1) 178_164_211_125
 C   +0.00000000   +0.00000000   +0.00000000
 O   +0.00000000   +0.00000000   +1.41698956
 C   +1.20297960   +0.00000000   +1.98662868
 C   +1.09583966   +0.05453629   +3.48179828
 C   +2.37231857   -0.31145826   +4.15985733
 C   +2.49022537   -0.90800371   +5.34001490
 C   +1.39940115   -1.35904693   +6.25137994
 C   +1.51754548   -2.83394850   +6.60098175
 O   +2.22424571   -0.01282267   +1.35615758
 H   +2.48129676   -3.04990841   +7.05805329
 H   +0.50378947   +0.88382525   -0.37870249
 H   +1.42967411   -3.45295077   +5.71124135
 H   +0.74255355   -3.13563603   +7.30154103
 H   +0.42196013   -1.15822506   +5.81785660
 H   +1.44739310   -0.77247655   +7.17098864
 H   +3.49498739   -1.10229355   +5.69689036
 H   +3.26681338   -0.04995177   +3.61270834
 H   +0.81173540   +1.08296203   +3.72086043
 H   +0.25557114   -0.56165523   +3.78803200
 H   +0.50706927   -0.88206951   -0.37796545
 H   -1.04092793   -0.00196102   -0.29598210
21
 * E =  +0.419 kcal/mol ; (2) 180_055_120_238
 C   +0.00000000   +0.00000000   +0.00000000
 O   +0.00000000   +0.00000000   +1.41661485
 C   +1.20258046   +0.00000000   +1.98729698
 C   +1.10793249   -0.00694439   +3.48554515
 C   +0.29105195   -1.14964215   +3.99853724
 C   +0.70357958   -2.11656271   +4.81071842
 C   +2.05946201   -2.32162726   +5.39587485
 C   +2.64244674   -3.67366270   +5.01474964
 O   +2.22463451   +0.01391130   +1.35796418
 H   +2.77767773   -3.74787592   +3.93852614
 H   +0.50166669   +0.88507560   -0.37852477
 H   +1.98488878   -4.48425653   +5.32310393
 H   +3.60836740   -3.83063121   +5.48858275
 H   +1.98261928   -2.26281706   +6.48310084
 H   +2.74177640   -1.53149263   +5.09348360
 H   -0.02731425   -2.86904281   +5.08444227
 H   -0.73403987   -1.16729473   +3.65550525
 H   +2.12048838   -0.00875649   +3.86831304
 H   +0.63784446   +0.93304503   +3.77973102
 H   +0.50951457   -0.88091118   -0.37756991
 H   -1.04075624   -0.00482494   -0.29660962
21
 * E =  +0.454 kcal/mol ; (3) 180_055_116_120
 C   +0.00000000   +0.00000000   +0.00000000
 O   +0.00000000   +0.00000000   +1.41655994
 C   +1.20269122   +0.00000000   +1.98710580
 C   +1.10762227   -0.00817384   +3.48551126
 C   +0.28160471   -1.14429594   +3.99856663
 C   +0.70254100   -2.14766910   +4.76072677
 C   +2.07224390   -2.39403965   +5.29540763
 C   +2.09280488   -2.43178080   +6.81572507
 O   +2.22476655   +0.01514162   +1.35794986
 H   +1.41053077   -3.18886298   +7.19751601
 H   +0.50019474   +0.88580892   -0.37876583
 H   +1.78932452   -1.47452352   +7.23302342
 H   +3.08780567   -2.66314246   +7.18817153
 H   +2.77545831   -1.64813697   +4.93417653
 H   +2.42491050   -3.35324129   +4.91288648
 H   -0.03760981   -2.88514062   +5.04988235
 H   -0.75669875   -1.12626068   +3.69813185
 H   +2.12014633   -0.01827575   +3.86849531
 H   +0.64452356   +0.93491141   +3.78021856
 H   +0.51071468   -0.88022537   -0.37751561
 H   -1.04078457   -0.00640207   -0.29652302
21
 * E =  +0.599 kcal/mol ; (4) 183_213_282_117
 C   +0.00000000   +0.00000000   +0.00000000
 O   +0.00000000   +0.00000000   +1.41701264
 C   +1.20379751   +0.00000000   +1.98570337
 C   +1.10603950   -0.07138185   +3.48491408
 C   +2.19507837   +0.66985704   +4.19354284
 C   +3.44122655   +0.24335681   +4.35720370
 C   +4.02792243   -1.03303980   +3.86202254
 C   +5.15443886   -0.78360671   +2.87077068
 O   +2.22371138   +0.01443324   +1.35352736
 H   +5.93652779   -0.16921531   +3.31348027
 H   +0.50807875   +0.88168559   -0.37754385
 H   +4.76997652   -0.27137226   +1.99363167
 H   +5.60728250   -1.72017796   +2.55346912
 H   +3.26492021   -1.64592680   +3.38746993
 H   +4.41310564   -1.59980825   +4.71203913
 H   +4.12669042   +0.89624845   +4.88505699
 H   +1.92672930   +1.64148579   +4.58425592
 H   +0.12492455   +0.28395842   +3.78323070
 H   +1.13438684   -1.13421883   +3.72940365
 H   +0.50353378   -0.88402516   -0.37865887
 H   -1.04085357   +0.00267663   -0.29628298
21
 * E =  +0.672 kcal/mol ; (5) 183_081_267_237
 C   +0.00000000   +0.00000000   +0.00000000
 O   +0.00000000   +0.00000000   +1.41633274
 C   +1.20359427   +0.00000000   +1.98594328
 C   +1.10148649   -0.07152140   +3.48197264
 C   +0.87262339   -1.48756207   +3.92342183
 C   -0.30746022   -2.05603709   +4.14360660
 C   -1.65585989   -1.43567836   +4.01406807
 C   -2.45646079   -1.52788585   +5.30322563
 O   +2.22595682   +0.02838319   +1.35731516
 H   -1.96711349   -0.98167871   +6.10632849
 H   +0.50928054   +0.88044035   -0.37918042
 H   -2.56236104   -2.56202467   +5.62565242
 H   -3.45476838   -1.11656297   +5.17491646
 H   -2.19595238   -1.95560266   +3.22064019
 H   -1.57702606   -0.40211155   +3.68665036
 H   -0.30498644   -3.09338129   +4.45851729
 H   +1.76476687   -2.08608311   +4.04401693
 H   +2.03594957   +0.30251500   +3.88672119
 H   +0.29234567   +0.57540370   +3.80813064
 H   +0.50159563   -0.88567897   -0.37735215
 H   -1.04073979   +0.00401639   -0.29695301
21
 * E =  +0.699 kcal/mol ; (6) 177_265_112_246
 C   +0.00000000   +0.00000000   +0.00000000
 O   +0.00000000   +0.00000000   +1.41677567
 C   +1.20354968   +0.00000000   +1.98460957
 C   +1.11611498   +0.07062831   +3.48143651
 C   +1.24582337   +1.49603771   +3.92435781
 C   +0.29521798   +2.24621750   +4.47010702
 C   -1.11913889   +1.87516978   +4.75960311
 C   -2.09656329   +2.68068195   +3.91647687
 O   +2.22548011   -0.02099024   +1.35426373
 H   -1.95274664   +2.47190714   +2.85918092
 H   +0.50349367   +0.88461289   -0.37724773
 H   -1.95651538   +3.74935187   +4.06693903
 H   -3.12531993   +2.44016616   +4.17396150
 H   -1.32147726   +2.06113857   +5.81542434
 H   -1.28761747   +0.81419289   +4.59428385
 H   +0.56117183   +3.26647142   +4.72161742
 H   +2.21897861   +1.93709276   +3.75657831
 H   +0.18146138   -0.36932493   +3.80906095
 H   +1.94305601   -0.51414845   +3.87655219
 H   +0.50807881   -0.88134056   -0.37852561
 H   -1.04077413   -0.00265022   -0.29662609
21
 * E =  +0.976 kcal/mol ; (7) 177_150_076_132
 C   +0.00000000   +0.00000000   +0.00000000
 O   +0.00000000   +0.00000000   +1.41675630
 C   +1.20457469   +0.00000000   +1.98565223
 C   +1.10207580   +0.07704641   +3.48449011
 C   +2.22781586   -0.59608909   +4.20160505
 C   +3.45844066   -0.11477375   +4.32558368
 C   +3.97506829   +1.17513287   +3.79000354
 C   +4.73676330   +1.97269460   +4.83485418
 O   +2.22457227   -0.01706126   +1.35466233
 H   +5.57052369   +1.39795029   +5.23420726
 H   +0.50798951   +0.88145631   -0.37879966
 H   +4.09366898   +2.24210030   +5.66990227
 H   +5.14021142   +2.88939527   +4.41163309
 H   +3.16320277   +1.76945828   +3.37541348
 H   +4.63111937   +0.95479165   +2.94671647
 H   +4.18034572   -0.71850801   +4.86351375
 H   +2.00657259   -1.56459330   +4.62764685
 H   +1.07243893   +1.14271074   +3.71924198
 H   +0.13985898   -0.32591422   +3.78420300
 H   +0.50332530   -0.88420265   -0.37807405
 H   -1.04086873   +0.00267409   -0.29641233
21
 * E =  +3.484 kcal/mol ; (8) 183_072_096_003
 C   +0.00000000   +0.00000000   +0.00000000
 O   +0.00000000   +0.00000000   +1.41647266
 C   +1.20181116   +0.00000000   +1.98751444
 C   +1.10651564   -0.06726437   +3.48381746
 C   +0.65560533   -1.43215084   +3.91706173
 C   +1.37837485   -2.47429774   +4.31714300
 C   +2.84750846   -2.69590893   +4.48073796
 C   +3.81382258   -1.55739608   +4.22735111
 O   +2.22486027   +0.02769604   +1.35828218
 H   +3.67911521   -0.74954939   +4.94310679
 H   +0.50267493   +0.88430172   -0.37885812
 H   +3.71220445   -1.15078427   +3.22427672
 H   +4.83448230   -1.91587932   +4.33796771
 H   +3.10716519   -3.53173003   +3.82681282
 H   +3.00405776   -3.08066605   +5.49069923
 H   +0.80019447   -3.35837477   +4.56115049
 H   -0.41418104   -1.57986354   +3.85867543
 H   +2.07140323   +0.20560038   +3.88418113
 H   +0.37354480   +0.66728884   +3.81079230
 H   +0.50799962   -0.88192162   -0.37752632
 H   -1.04080288   -0.00335189   -0.29650643
21
 * E =  +3.844 kcal/mol ; (9) 183_095_252_359
 C   +0.00000000   +0.00000000   +0.00000000
 O   +0.00000000   +0.00000000   +1.41676777
 C   +1.20417121   +0.00000000   +1.98533324
 C   +1.11540085   -0.07322210   +3.48197289
 C   +1.24570082   -1.50313235   +3.91771552
 C   +0.33219632   -2.34099638   +4.39844224
 C   -1.12997472   -2.21391771   +4.68212563
 C   -1.83689143   -0.89960651   +4.42499573
 O   +2.22517997   +0.02403291   +1.35384313
 H   -1.73174771   -0.58124037   +3.39094434
 H   +0.51190092   +0.87909366   -0.37851109
 H   -1.46409245   -0.10788580   +5.07069398
 H   -2.89864689   -1.00970054   +4.63270106
 H   -1.28175165   -2.50384269   +5.72405768
 H   -1.62549824   -2.99838516   +4.10571763
 H   +0.70698770   -3.33208626   +4.62781678
 H   +2.24519917   -1.89861035   +3.79331697
 H   +1.95422528   +0.49559978   +3.87483476
 H   +0.19401619   +0.38324723   +3.81281199
 H   +0.49948779   -0.88693001   -0.37709360
 H   -1.04072699   +0.00694185   -0.29689965
21
 * E =  +8.257 kcal/mol ; (10) 003_085_231_130
 C   +0.00000000   +0.00000000   +0.00000000
 O   +0.00000000   +0.00000000   +1.41005656
 C   +1.14178586   +0.00000000   +2.10456313
 C   +2.44643990   +0.05854465   +1.34618746
 C   +2.79960612   +1.47777052   +1.02004565
 C   +3.13114903   +1.96966064   -0.16899936
 C   +3.20831278   +1.25480500   -1.47577577
 C   +2.45708835   +1.99040986   -2.57390914
 O   +1.09617998   -0.01047806   +3.29997535
 H   +2.84491608   +2.99875338   -2.70255390
 H   +0.59487193   +0.81732953   -0.39843030
 H   +1.39796013   +2.07635285   -2.33916038
 H   +2.54937693   +1.47492879   -3.52643850
 H   +2.83207557   +0.23711016   -1.38786424
 H   +4.25702083   +1.16479870   -1.76496464
 H   +3.38128242   +3.02339962   -0.21044962
 H   +2.79703048   +2.14723101   +1.86987039
 H   +3.19022069   -0.35131590   +2.02460916
 H   +2.42289970   -0.56447568   +0.45776833
 H   +0.35867412   -0.94908940   -0.39357898
 H   -1.03407955   +0.13220737   -0.29354695
21
 * E =  +8.284 kcal/mol ; (11) 002_084_233_241
 C   +0.00000000   +0.00000000   +0.00000000
 O   +0.00000000   +0.00000000   +1.41022156
 C   +1.14034089   +0.00000000   +2.10662357
 C   +2.44789251   +0.05452510   +1.35208333
 C   +2.79935204   +1.47138994   +1.01406538
 C   +3.09954663   +1.96092516   -0.18433936
 C   +3.16092914   +1.23830297   -1.48720017
 C   +4.54751341   +1.30100917   -2.10952142
 O   +1.09238244   -0.00878969   +3.30202148
 H   +5.28161450   +0.81534611   -1.47144640
 H   +0.57847438   +0.82871894   -0.39844667
 H   +4.86432080   +2.33201289   -2.25209178
 H   +4.56345935   +0.81075130   -3.07971256
 H   +2.44561091   +1.69513442   -2.17437842
 H   +2.85700770   +0.19950123   -1.37464539
 H   +3.34997019   +3.01410427   -0.23452317
 H   +2.81634024   +2.14325841   +1.86184343
 H   +3.18885821   -0.34787780   +2.03778786
 H   +2.42648658   -0.57615502   +0.46900012
 H   +0.37681000   -0.94160337   -0.39448097
 H   -1.03666971   +0.11177069   -0.29277766
21
 * E =  +8.418 kcal/mol ; (12) 357_174_210_125
 C   +0.00000000   +0.00000000   +0.00000000
 O   +0.00000000   +0.00000000   +1.40836472
 C   +1.14045237   +0.00000000   +2.11077774
 C   +2.43111158   -0.06757351   +1.33438215
 C   +3.62420381   +0.08068781   +2.21724935
 C   +4.79140915   +0.60766804   +1.86818723
 C   +5.18268615   +1.18096538   +0.54829797
 C   +5.69542335   +2.60691558   +0.67221259
 O   +1.08290862   +0.02627159   +3.30411750
 H   +6.54386429   +2.65716542   +1.35168477
 H   +0.40119191   +0.92933258   -0.39856782
 H   +4.92337716   +3.26602211   +1.06204291
 H   +6.01806527   +2.99445062   -0.29115117
 H   +4.35264578   +1.14566981   -0.15479075
 H   +5.96852453   +0.55847455   +0.11590917
 H   +5.56401748   +0.63943087   +2.62741257
 H   +3.49054826   -0.28392971   +3.22484500
 H   +2.44771617   -1.03602748   +0.82603815
 H   +2.41688810   +0.67822246   +0.54266246
 H   +0.55478540   -0.84260853   -0.40580586
 H   -1.03852094   -0.08826360   -0.29371269
21
 * E =  +8.747 kcal/mol ; (13) 003_079_073_249
 C   +0.00000000   +0.00000000   +0.00000000
 O   +0.00000000   +0.00000000   +1.40883672
 C   +1.14008241   +0.00000000   +2.10636360
 C   +2.44989276   +0.07266328   +1.35635031
 C   +2.75825355   +1.47532715   +0.90503125
 C   +3.14465689   +2.46477847   +1.70389054
 C   +3.33108235   +2.40629691   +3.18089137
 C   +2.28413148   +3.23231856   +3.91477373
 O   +1.08566900   -0.03164646   +3.30186333
 H   +1.29086060   +2.82444708   +3.74738162
 H   +0.56091519   +0.83921694   -0.40130905
 H   +2.28994077   +4.26746938   +3.57838468
 H   +2.47114748   +3.22674249   +4.98553624
 H   +4.32386046   +2.78977253   +3.42118471
 H   +3.28395145   +1.38017550   +3.53554946
 H   +3.32993506   +3.42838079   +1.24385396
 H   +2.65760383   +1.67976953   -0.15183461
 H   +3.20283452   -0.28518378   +2.05104208
 H   +2.44237747   -0.59977273   +0.50252621
 H   +0.39195835   -0.93426846   -0.39610709
 H   -1.03784914   +0.09709514   -0.29366537
21
 * E =  +8.938 kcal/mol ; (14) 003_077_073_129
 C   +0.00000000   +0.00000000   +0.00000000
 O   +0.00000000   +0.00000000   +1.40866791
 C   +1.13996557   +0.00000000   +2.10663133
 C   +2.45060185   +0.06798630   +1.35658823
 C   +2.76069817   +1.45674243   +0.86669368
 C   +3.13938773   +2.47001879   +1.63880698
 C   +3.33229857   +2.45305415   +3.11557055
 C   +4.68235545   +3.02274675   +3.51939069
 O   +1.08580310   -0.03506622   +3.30178423
 H   +4.80465444   +4.04166005   +3.15628528
 H   +0.54825766   +0.84752423   -0.40118367
 H   +5.49660965   +2.42741440   +3.11230080
 H   +4.78839711   +3.04106795   +4.60099716
 H   +3.20440907   +1.44845552   +3.51048450
 H   +2.54073788   +3.04931438   +3.57355678
 H   +3.34167332   +3.41674572   +1.15085596
 H   +2.67296826   +1.62924497   -0.19691133
 H   +3.20352419   -0.26858402   +2.06224454
 H   +2.44779422   -0.62778053   +0.52132797
 H   +0.40538830   -0.92822494   -0.39691943
 H   -1.03924242   +0.08169576   -0.29349076
21
 * E =  +9.079 kcal/mol ; (15) 358_170_072_242
 C   +0.00000000   +0.00000000   +0.00000000
 O   +0.00000000   +0.00000000   +1.40837920
 C   +1.13868005   +0.00000000   +2.11609826
 C   +2.43337700   -0.05851829   +1.33611955
 C   +3.65325254   +0.17636127   +2.16747005
 C   +4.15155732   -0.67689437   +3.05250379
 C   +3.59157023   -2.00595656   +3.42388835
 C   +3.20763065   -2.05709953   +4.89481685
 O   +1.07364517   +0.01110083   +3.30842937
 H   +2.43531123   -1.32257858   +5.10296225
 H   +0.38119744   +0.93772406   -0.39850435
 H   +4.06578563   -1.84295263   +5.52935084
 H   +2.83168121   -3.04119481   +5.16460214
 H   +4.33561562   -2.77763551   +3.21617921
 H   +2.71765022   -2.23619035   +2.81763984
 H   +5.04079266   -0.37633845   +3.59382540
 H   +4.14515973   +1.12858558   +2.03060347
 H   +2.46778707   -1.04104174   +0.86025524
 H   +2.39227285   +0.65861610   +0.51957329
 H   +0.57234963   -0.83040828   -0.40635955
 H   -1.03664429   -0.10988465   -0.29346728
21
 * E =  +9.500 kcal/mol ; (16) 357_170_071_135
 C   +0.00000000   +0.00000000   +0.00000000
 O   +0.00000000   +0.00000000   +1.40819262
 C   +1.13951604   +0.00000000   +2.11572370
 C   +2.43385023   -0.06140993   +1.33481297
 C   +3.65252288   +0.17136690   +2.16718064
 C   +4.13329452   -0.67588241   +3.06758619
 C   +3.56195563   -2.00012044   +3.43717237
 C   +4.61878072   -3.08731245   +3.52693469
 O   +1.07602101   +0.01219970   +3.30774659
 H   +5.38791441   -2.82476424   +4.25098636
 H   +0.37910200   +0.93856265   -0.39870081
 H   +5.10892527   -3.24079998   +2.56787890
 H   +4.18271936   -4.03368219   +3.83707540
 H   +2.78228958   -2.29040365   +2.73458796
 H   +3.05943087   -1.89377462   +4.39974250
 H   +5.02088544   -0.37916752   +3.61391723
 H   +4.15323706   +1.11815581   +2.02530415
 H   +2.46672262   -1.04692319   +0.86381005
 H   +2.39470914   +0.65257778   +0.51554121
 H   +0.57452484   -0.82893372   -0.40646887
 H   -1.03630988   -0.11236431   -0.29380330
21
 * E = +10.506 kcal/mol ; (17) 356_084_005_095
 C   +0.00000000   +0.00000000   +0.00000000
 O   +0.00000000   +0.00000000   +1.41170978
 C   +1.14760328   +0.00000000   +2.09991057
 C   +2.44007308   -0.10232837   +1.33540782
 C   +3.01784712   +1.16078876   +0.76759326
 C   +2.63068418   +2.42703688   +0.88700355
 C   +1.47234923   +3.01204679   +1.62824114
 C   +1.87203149   +3.48608234   +3.01903427
 O   +1.10732788   +0.06162767   +3.29427627
 H   +2.70278472   +4.18727504   +2.97144788
 H   +0.66013676   +0.76747007   -0.39660591
 H   +2.17141850   +2.64218483   +3.63450891
 H   +1.03900005   +3.98306722   +3.51005932
 H   +0.64449303   +2.31491115   +1.71266290
 H   +1.09640987   +3.85871971   +1.05418576
 H   +3.27498250   +3.15591974   +0.40997923
 H   +3.92382381   +0.97866140   +0.20402311
 H   +3.15687804   -0.51563028   +2.04141806
 H   +2.33799412   -0.83242844   +0.53230219
 H   +0.28311808   -0.97439960   -0.39207264
 H   -1.01987582   +0.21368979   -0.29488484
21
 * E = +11.808 kcal/mol ; (18) 356_277_131_009
 C   +0.00000000   +0.00000000   +0.00000000
 O   +0.00000000   +0.00000000   +1.40981751
 C   +1.14263591   +0.00000000   +2.10372459
 C   +2.44534358   -0.09343997   +1.34467104
 C   +2.73552285   -1.53013830   +1.02458208
 C   +3.09128739   -2.10937557   -0.11839823
 C   +3.35364369   -1.58763658   -1.49589211
 C   +3.42271002   -0.09326933   -1.73865028
 O   +1.09682090   +0.03285301   +3.29877783
 H   +4.12994077   +0.38890698   -1.06798293
 H   +0.34672022   +0.95476757   -0.39113932
 H   +2.45624377   +0.39077544   -1.62424164
 H   +3.75363447   +0.09699997   -2.75657111
 H   +2.60791145   -2.02790598   -2.16289781
 H   +4.29783806   -2.03147819   -1.81582714
 H   +3.23244585   -3.18195890   -0.05458076
 H   +2.63933967   -2.18185310   +1.88381977
 H   +2.43718607   +0.53817416   +0.46652373
 H   +3.20023152   +0.28366839   +2.02993703
 H   +0.60641688   -0.80867877   -0.40017635
 H   -1.03220491   -0.14476070   -0.29426240
